*SPEF "ieee 1481-1999"
*DESIGN "user_proj_timer"
*DATE "00:37:14 Sunday November 02, 2025"
*VENDOR "The OpenROAD Project"
*PROGRAM "OpenROAD"
*VERSION "b16bda7e82721d10566ff7e2b68f1ff0be9f9e38"
*DESIGN_FLOW "NAME_SCOPE LOCAL" "PIN_CAP NONE"
*DIVIDER /
*DELIMITER :
*BUS_DELIMITER []
*T_UNIT 1 NS
*C_UNIT 1 PF
*R_UNIT 1 OHM
*L_UNIT 1 HENRY

*NAME_MAP
*1 io_in[0]
*2 io_in[10]
*3 io_in[1]
*4 io_in[2]
*5 io_in[3]
*6 io_in[4]
*7 io_in[5]
*8 io_in[6]
*9 io_in[7]
*10 io_in[8]
*11 io_in[9]
*12 net29
*13 net39
*14 net30
*15 net31
*16 net32
*17 net33
*18 net34
*19 net35
*20 net36
*21 net37
*22 net38
*23 io_out[0]
*24 io_out[10]
*25 io_out[1]
*26 io_out[2]
*27 io_out[3]
*28 io_out[4]
*29 io_out[5]
*30 io_out[6]
*31 io_out[7]
*32 io_out[8]
*33 io_out[9]
*36 wb_clk_i
*37 wb_rst_i
*38 _000_
*39 _001_
*40 _003_
*41 _004_
*42 _005_
*43 _006_
*44 _007_
*45 _008_
*46 _009_
*47 _010_
*48 _011_
*49 _012_
*50 _013_
*51 _014_
*52 _015_
*53 _016_
*54 _017_
*55 _018_
*56 _019_
*57 _020_
*58 _021_
*59 _022_
*60 _023_
*61 _024_
*62 _025_
*63 _026_
*64 _027_
*65 _028_
*66 _029_
*67 _030_
*68 _031_
*69 _032_
*70 _033_
*71 _034_
*72 _035_
*73 _036_
*74 _037_
*75 _038_
*76 _039_
*77 _040_
*78 _041_
*79 _042_
*80 _043_
*81 _044_
*82 _045_
*83 _046_
*84 _047_
*85 _048_
*86 _049_
*87 _050_
*88 _051_
*89 _053_
*90 _054_
*91 _055_
*92 _056_
*93 _057_
*94 _058_
*95 _059_
*96 _060_
*97 _061_
*98 _062_
*99 _063_
*100 _064_
*101 _065_
*102 _066_
*103 _067_
*104 _068_
*105 _069_
*106 _070_
*107 _071_
*108 _072_
*109 _073_
*110 _074_
*111 _075_
*112 _076_
*113 _077_
*114 _078_
*115 _079_
*116 _080_
*117 _081_
*118 _082_
*119 _083_
*120 _084_
*121 _085_
*122 _086_
*123 _087_
*124 _088_
*125 _089_
*126 _090_
*127 _091_
*128 _092_
*129 _093_
*130 _094_
*131 _095_
*132 _096_
*133 _097_
*134 _098_
*135 _099_
*136 _100_
*137 _101_
*138 _102_
*139 _103_
*140 _104_
*141 _105_
*142 _106_
*143 _107_
*144 _108_
*145 _109_
*146 _110_
*147 _111_
*148 _112_
*149 _113_
*150 _114_
*151 _115_
*152 _116_
*153 _117_
*154 _118_
*155 _119_
*156 _120_
*157 _121_
*158 _122_
*159 _123_
*160 _124_
*161 _125_
*162 _126_
*163 _127_
*164 _128_
*165 _129_
*166 _130_
*167 _131_
*168 _132_
*169 _133_
*170 _134_
*171 _135_
*172 _136_
*173 _137_
*174 _138_
*175 _139_
*176 _140_
*177 _141_
*178 _142_
*179 _143_
*180 _144_
*181 _145_
*182 _146_
*183 _147_
*184 _148_
*185 _149_
*186 _150_
*187 _151_
*188 _152_
*189 _153_
*190 _154_
*191 _155_
*192 _156_
*193 _157_
*194 _158_
*195 _159_
*196 _160_
*197 _161_
*198 _162_
*199 _163_
*200 _164_
*201 _165_
*202 _166_
*203 _167_
*204 _168_
*205 _169_
*206 _170_
*207 _171_
*208 _172_
*209 _173_
*210 _174_
*211 _175_
*212 _176_
*213 _177_
*214 _178_
*215 _179_
*216 _180_
*217 _181_
*218 _182_
*219 _183_
*220 _184_
*221 _185_
*222 _186_
*223 _187_
*224 _188_
*225 _189_
*226 _190_
*227 _191_
*228 _192_
*229 _193_
*230 _194_
*231 _195_
*232 _196_
*233 _197_
*234 _198_
*235 _199_
*236 _200_
*237 _201_
*238 _202_
*239 _203_
*240 _204_
*241 _205_
*242 _206_
*243 _207_
*244 _208_
*245 _209_
*246 _210_
*247 _211_
*248 _212_
*249 _213_
*250 _214_
*251 _215_
*252 _216_
*253 _217_
*254 _218_
*255 _219_
*256 _220_
*257 _221_
*258 _222_
*259 _223_
*260 _224_
*261 _225_
*262 _226_
*263 _227_
*264 _228_
*265 _229_
*266 _230_
*267 _231_
*268 _232_
*269 _233_
*270 _234_
*271 _235_
*272 _236_
*273 _237_
*274 _238_
*275 _239_
*276 _240_
*277 _241_
*278 _242_
*279 _243_
*280 _244_
*281 _245_
*282 _246_
*283 _247_
*284 _248_
*285 _249_
*286 _250_
*287 _251_
*288 _252_
*289 _253_
*290 _254_
*291 _255_
*292 _256_
*293 _257_
*294 _258_
*295 _259_
*296 _260_
*297 _261_
*298 _262_
*299 _263_
*300 _264_
*301 _265_
*302 _266_
*303 _267_
*304 busy
*305 clear_q
*306 clknet_0_wb_clk_i
*307 clknet_2_0__leaf_wb_clk_i
*308 clknet_2_1__leaf_wb_clk_i
*309 clknet_2_2__leaf_wb_clk_i
*310 clknet_2_3__leaf_wb_clk_i
*311 cycle_count\[0\]
*312 cycle_count\[1\]
*313 cycle_count\[2\]
*314 done
*315 net1
*316 net10
*317 net100
*318 net101
*319 net102
*320 net103
*321 net104
*322 net105
*323 net106
*324 net107
*325 net108
*326 net109
*327 net11
*328 net110
*329 net111
*330 net112
*331 net113
*332 net114
*333 net115
*334 net116
*335 net117
*336 net118
*337 net119
*338 net12
*339 net120
*340 net121
*341 net122
*342 net123
*343 net124
*344 net125
*345 net126
*346 net127
*347 net128
*348 net129
*349 net13
*350 net130
*351 net131
*352 net14
*353 net15
*354 net16
*355 net17
*356 net18
*357 net19
*358 net2
*359 net20
*360 net21
*361 net22
*362 net23
*363 net24
*364 net25
*365 net26
*366 net27
*367 net28
*368 net3
*369 net4
*370 net40
*371 net41
*372 net42
*373 net43
*374 net44
*375 net45
*376 net46
*377 net47
*378 net48
*379 net49
*380 net5
*381 net50
*382 net51
*383 net52
*384 net53
*385 net54
*386 net55
*387 net56
*388 net57
*389 net58
*390 net59
*391 net6
*392 net60
*393 net61
*394 net62
*395 net63
*396 net64
*397 net65
*398 net66
*399 net67
*400 net68
*401 net69
*402 net7
*403 net70
*404 net71
*405 net72
*406 net73
*407 net74
*408 net75
*409 net76
*410 net77
*411 net78
*412 net79
*413 net8
*414 net80
*415 net81
*416 net82
*417 net83
*418 net84
*419 net85
*420 net86
*421 net87
*422 net88
*423 net89
*424 net9
*425 net90
*426 net91
*427 net92
*428 net93
*429 net94
*430 net95
*431 net96
*432 net97
*433 net98
*434 net99
*435 start_q
*436 state\[0\]
*437 state\[1\]
*438 state\[2\]
*439 u_array\.a_row_0\[0\]
*440 u_array\.a_row_0\[1\]
*441 u_array\.a_row_0\[2\]
*442 u_array\.a_row_1\[2\]
*443 u_array\.a_row_2\[0\]
*444 u_array\.a_row_2\[1\]
*445 u_array\.a_row_2\[3\]
*446 u_array\.a_row_3\[0\]
*447 u_array\.a_row_3\[2\]
*448 u_array\.c_out_30\[0\]
*449 u_array\.c_out_30\[1\]
*450 u_array\.c_out_30\[2\]
*451 u_array\.c_out_30\[3\]
*452 u_array\.c_out_30\[4\]
*453 u_array\.c_out_30\[5\]
*454 u_array\.c_out_30\[6\]
*455 u_array\.c_out_30\[7\]
*456 u_array\.c_out_30\[8\]
*457 u_array\.ps_0_0_to_1_0\[0\]
*458 u_array\.ps_0_0_to_1_0\[1\]
*459 u_array\.ps_0_0_to_1_0\[2\]
*460 u_array\.ps_0_0_to_1_0\[3\]
*461 u_array\.ps_0_0_to_1_0\[4\]
*462 u_array\.ps_0_0_to_1_0\[5\]
*463 u_array\.ps_1_0_to_2_0\[0\]
*464 u_array\.ps_1_0_to_2_0\[1\]
*465 u_array\.ps_1_0_to_2_0\[2\]
*466 u_array\.ps_1_0_to_2_0\[3\]
*467 u_array\.ps_1_0_to_2_0\[4\]
*468 u_array\.ps_1_0_to_2_0\[5\]
*469 u_array\.ps_1_0_to_2_0\[6\]
*470 u_array\.ps_1_0_to_2_0\[7\]
*471 u_array\.ps_2_0_to_3_0\[0\]
*472 u_array\.ps_2_0_to_3_0\[1\]
*473 u_array\.ps_2_0_to_3_0\[2\]
*474 u_array\.ps_2_0_to_3_0\[3\]
*475 u_array\.ps_2_0_to_3_0\[4\]
*476 u_array\.ps_2_0_to_3_0\[5\]
*477 u_array\.ps_2_0_to_3_0\[6\]
*478 u_array\.ps_2_0_to_3_0\[7\]
*479 u_array\.ps_2_0_to_3_0\[8\]
*480 u_array\.u00\.w_in\[0\]
*481 u_array\.u00\.w_in\[1\]
*482 u_array\.u00\.w_reg\[0\]
*483 u_array\.u00\.w_reg\[1\]
*484 ANTENNA_1
*485 ANTENNA__269__A
*486 ANTENNA__276__A
*487 ANTENNA__281__A
*488 ANTENNA__282__A
*489 ANTENNA__283__A
*490 ANTENNA__285__A
*491 ANTENNA__289__A_N
*492 ANTENNA__290__A_N
*493 ANTENNA__299__A
*494 ANTENNA__299__B
*495 ANTENNA__382__A
*496 ANTENNA__384__C1
*497 ANTENNA__386__C1
*498 ANTENNA__388__A
*499 ANTENNA__395__B1
*500 ANTENNA__402__A
*501 ANTENNA__403__A
*502 ANTENNA__428__C1
*503 ANTENNA__466__B1
*504 ANTENNA__473__A1
*505 ANTENNA__476__C_N
*506 ANTENNA__477__C1
*507 ANTENNA__479__B1
*508 ANTENNA__482__A
*509 ANTENNA__483__C1
*510 ANTENNA__484__A1
*511 ANTENNA__486__B1
*512 ANTENNA__487__C1
*513 ANTENNA__493__A
*514 ANTENNA__493__B
*515 ANTENNA__494__A
*516 ANTENNA__496__A1
*517 ANTENNA__498__B1
*518 ANTENNA__502__B1
*519 ANTENNA__505__C1
*520 ANTENNA__508__C1
*521 ANTENNA__511__A1
*522 ANTENNA__511__C1
*523 ANTENNA__514__C1
*524 ANTENNA__516__B
*525 ANTENNA__522__B1
*526 ANTENNA__524__B1
*527 ANTENNA__527__B1
*528 ANTENNA__531__B
*529 ANTENNA__532__A1
*530 ANTENNA_fanout15_A
*531 ANTENNA_output14_A
*532 ANTENNA_output4_A
*533 ANTENNA_output5_A
*534 FILLER_0_0_1005
*535 FILLER_0_0_1009
*536 FILLER_0_0_1021
*537 FILLER_0_0_1033
*538 FILLER_0_0_1037
*539 FILLER_0_0_1049
*540 FILLER_0_0_1057
*541 FILLER_0_0_109
*542 FILLER_0_0_113
*543 FILLER_0_0_125
*544 FILLER_0_0_137
*545 FILLER_0_0_141
*546 FILLER_0_0_15
*547 FILLER_0_0_153
*548 FILLER_0_0_165
*549 FILLER_0_0_169
*550 FILLER_0_0_181
*551 FILLER_0_0_193
*552 FILLER_0_0_197
*553 FILLER_0_0_209
*554 FILLER_0_0_221
*555 FILLER_0_0_225
*556 FILLER_0_0_237
*557 FILLER_0_0_249
*558 FILLER_0_0_253
*559 FILLER_0_0_265
*560 FILLER_0_0_27
*561 FILLER_0_0_277
*562 FILLER_0_0_281
*563 FILLER_0_0_29
*564 FILLER_0_0_293
*565 FILLER_0_0_3
*566 FILLER_0_0_305
*567 FILLER_0_0_309
*568 FILLER_0_0_321
*569 FILLER_0_0_333
*570 FILLER_0_0_337
*571 FILLER_0_0_349
*572 FILLER_0_0_361
*573 FILLER_0_0_365
*574 FILLER_0_0_377
*575 FILLER_0_0_389
*576 FILLER_0_0_393
*577 FILLER_0_0_405
*578 FILLER_0_0_41
*579 FILLER_0_0_417
*580 FILLER_0_0_421
*581 FILLER_0_0_433
*582 FILLER_0_0_445
*583 FILLER_0_0_449
*584 FILLER_0_0_461
*585 FILLER_0_0_473
*586 FILLER_0_0_477
*587 FILLER_0_0_489
*588 FILLER_0_0_501
*589 FILLER_0_0_505
*590 FILLER_0_0_517
*591 FILLER_0_0_529
*592 FILLER_0_0_53
*593 FILLER_0_0_533
*594 FILLER_0_0_545
*595 FILLER_0_0_557
*596 FILLER_0_0_561
*597 FILLER_0_0_57
*598 FILLER_0_0_573
*599 FILLER_0_0_585
*600 FILLER_0_0_589
*601 FILLER_0_0_601
*602 FILLER_0_0_613
*603 FILLER_0_0_617
*604 FILLER_0_0_629
*605 FILLER_0_0_641
*606 FILLER_0_0_645
*607 FILLER_0_0_657
*608 FILLER_0_0_669
*609 FILLER_0_0_673
*610 FILLER_0_0_685
*611 FILLER_0_0_69
*612 FILLER_0_0_697
*613 FILLER_0_0_701
*614 FILLER_0_0_713
*615 FILLER_0_0_725
*616 FILLER_0_0_729
*617 FILLER_0_0_741
*618 FILLER_0_0_753
*619 FILLER_0_0_757
*620 FILLER_0_0_769
*621 FILLER_0_0_781
*622 FILLER_0_0_785
*623 FILLER_0_0_797
*624 FILLER_0_0_809
*625 FILLER_0_0_81
*626 FILLER_0_0_813
*627 FILLER_0_0_825
*628 FILLER_0_0_837
*629 FILLER_0_0_841
*630 FILLER_0_0_85
*631 FILLER_0_0_853
*632 FILLER_0_0_865
*633 FILLER_0_0_869
*634 FILLER_0_0_881
*635 FILLER_0_0_893
*636 FILLER_0_0_897
*637 FILLER_0_0_909
*638 FILLER_0_0_921
*639 FILLER_0_0_925
*640 FILLER_0_0_937
*641 FILLER_0_0_949
*642 FILLER_0_0_953
*643 FILLER_0_0_965
*644 FILLER_0_0_97
*645 FILLER_0_0_977
*646 FILLER_0_0_981
*647 FILLER_0_0_993
*648 FILLER_0_100_1005
*649 FILLER_0_100_1017
*650 FILLER_0_100_1029
*651 FILLER_0_100_1035
*652 FILLER_0_100_1037
*653 FILLER_0_100_1049
*654 FILLER_0_100_1057
*655 FILLER_0_100_109
*656 FILLER_0_100_121
*657 FILLER_0_100_133
*658 FILLER_0_100_139
*659 FILLER_0_100_141
*660 FILLER_0_100_15
*661 FILLER_0_100_153
*662 FILLER_0_100_165
*663 FILLER_0_100_177
*664 FILLER_0_100_189
*665 FILLER_0_100_195
*666 FILLER_0_100_197
*667 FILLER_0_100_209
*668 FILLER_0_100_221
*669 FILLER_0_100_233
*670 FILLER_0_100_245
*671 FILLER_0_100_251
*672 FILLER_0_100_253
*673 FILLER_0_100_265
*674 FILLER_0_100_27
*675 FILLER_0_100_277
*676 FILLER_0_100_289
*677 FILLER_0_100_29
*678 FILLER_0_100_3
*679 FILLER_0_100_301
*680 FILLER_0_100_307
*681 FILLER_0_100_309
*682 FILLER_0_100_321
*683 FILLER_0_100_333
*684 FILLER_0_100_345
*685 FILLER_0_100_357
*686 FILLER_0_100_363
*687 FILLER_0_100_365
*688 FILLER_0_100_377
*689 FILLER_0_100_389
*690 FILLER_0_100_401
*691 FILLER_0_100_41
*692 FILLER_0_100_413
*693 FILLER_0_100_419
*694 FILLER_0_100_421
*695 FILLER_0_100_433
*696 FILLER_0_100_445
*697 FILLER_0_100_457
*698 FILLER_0_100_469
*699 FILLER_0_100_475
*700 FILLER_0_100_477
*701 FILLER_0_100_489
*702 FILLER_0_100_501
*703 FILLER_0_100_513
*704 FILLER_0_100_525
*705 FILLER_0_100_53
*706 FILLER_0_100_531
*707 FILLER_0_100_533
*708 FILLER_0_100_545
*709 FILLER_0_100_557
*710 FILLER_0_100_569
*711 FILLER_0_100_581
*712 FILLER_0_100_587
*713 FILLER_0_100_589
*714 FILLER_0_100_601
*715 FILLER_0_100_613
*716 FILLER_0_100_625
*717 FILLER_0_100_637
*718 FILLER_0_100_643
*719 FILLER_0_100_645
*720 FILLER_0_100_65
*721 FILLER_0_100_657
*722 FILLER_0_100_669
*723 FILLER_0_100_681
*724 FILLER_0_100_693
*725 FILLER_0_100_699
*726 FILLER_0_100_701
*727 FILLER_0_100_713
*728 FILLER_0_100_725
*729 FILLER_0_100_737
*730 FILLER_0_100_749
*731 FILLER_0_100_755
*732 FILLER_0_100_757
*733 FILLER_0_100_769
*734 FILLER_0_100_77
*735 FILLER_0_100_781
*736 FILLER_0_100_793
*737 FILLER_0_100_805
*738 FILLER_0_100_811
*739 FILLER_0_100_813
*740 FILLER_0_100_825
*741 FILLER_0_100_83
*742 FILLER_0_100_837
*743 FILLER_0_100_849
*744 FILLER_0_100_85
*745 FILLER_0_100_861
*746 FILLER_0_100_867
*747 FILLER_0_100_869
*748 FILLER_0_100_881
*749 FILLER_0_100_893
*750 FILLER_0_100_905
*751 FILLER_0_100_917
*752 FILLER_0_100_923
*753 FILLER_0_100_925
*754 FILLER_0_100_937
*755 FILLER_0_100_949
*756 FILLER_0_100_961
*757 FILLER_0_100_97
*758 FILLER_0_100_973
*759 FILLER_0_100_979
*760 FILLER_0_100_981
*761 FILLER_0_100_993
*762 FILLER_0_101_1001
*763 FILLER_0_101_1007
*764 FILLER_0_101_1009
*765 FILLER_0_101_1021
*766 FILLER_0_101_1033
*767 FILLER_0_101_1045
*768 FILLER_0_101_105
*769 FILLER_0_101_1057
*770 FILLER_0_101_111
*771 FILLER_0_101_113
*772 FILLER_0_101_125
*773 FILLER_0_101_137
*774 FILLER_0_101_149
*775 FILLER_0_101_15
*776 FILLER_0_101_161
*777 FILLER_0_101_167
*778 FILLER_0_101_169
*779 FILLER_0_101_181
*780 FILLER_0_101_193
*781 FILLER_0_101_205
*782 FILLER_0_101_217
*783 FILLER_0_101_223
*784 FILLER_0_101_225
*785 FILLER_0_101_237
*786 FILLER_0_101_249
*787 FILLER_0_101_261
*788 FILLER_0_101_27
*789 FILLER_0_101_273
*790 FILLER_0_101_279
*791 FILLER_0_101_281
*792 FILLER_0_101_293
*793 FILLER_0_101_3
*794 FILLER_0_101_305
*795 FILLER_0_101_317
*796 FILLER_0_101_329
*797 FILLER_0_101_335
*798 FILLER_0_101_337
*799 FILLER_0_101_349
*800 FILLER_0_101_361
*801 FILLER_0_101_373
*802 FILLER_0_101_385
*803 FILLER_0_101_39
*804 FILLER_0_101_391
*805 FILLER_0_101_393
*806 FILLER_0_101_405
*807 FILLER_0_101_417
*808 FILLER_0_101_429
*809 FILLER_0_101_441
*810 FILLER_0_101_447
*811 FILLER_0_101_449
*812 FILLER_0_101_461
*813 FILLER_0_101_473
*814 FILLER_0_101_485
*815 FILLER_0_101_497
*816 FILLER_0_101_503
*817 FILLER_0_101_505
*818 FILLER_0_101_51
*819 FILLER_0_101_517
*820 FILLER_0_101_529
*821 FILLER_0_101_541
*822 FILLER_0_101_55
*823 FILLER_0_101_553
*824 FILLER_0_101_559
*825 FILLER_0_101_561
*826 FILLER_0_101_57
*827 FILLER_0_101_573
*828 FILLER_0_101_585
*829 FILLER_0_101_597
*830 FILLER_0_101_609
*831 FILLER_0_101_615
*832 FILLER_0_101_617
*833 FILLER_0_101_629
*834 FILLER_0_101_641
*835 FILLER_0_101_653
*836 FILLER_0_101_665
*837 FILLER_0_101_671
*838 FILLER_0_101_673
*839 FILLER_0_101_685
*840 FILLER_0_101_69
*841 FILLER_0_101_697
*842 FILLER_0_101_709
*843 FILLER_0_101_721
*844 FILLER_0_101_727
*845 FILLER_0_101_729
*846 FILLER_0_101_741
*847 FILLER_0_101_753
*848 FILLER_0_101_765
*849 FILLER_0_101_777
*850 FILLER_0_101_783
*851 FILLER_0_101_785
*852 FILLER_0_101_797
*853 FILLER_0_101_809
*854 FILLER_0_101_81
*855 FILLER_0_101_821
*856 FILLER_0_101_833
*857 FILLER_0_101_839
*858 FILLER_0_101_841
*859 FILLER_0_101_853
*860 FILLER_0_101_865
*861 FILLER_0_101_877
*862 FILLER_0_101_889
*863 FILLER_0_101_895
*864 FILLER_0_101_897
*865 FILLER_0_101_909
*866 FILLER_0_101_921
*867 FILLER_0_101_93
*868 FILLER_0_101_933
*869 FILLER_0_101_945
*870 FILLER_0_101_951
*871 FILLER_0_101_953
*872 FILLER_0_101_965
*873 FILLER_0_101_977
*874 FILLER_0_101_989
*875 FILLER_0_102_1005
*876 FILLER_0_102_1017
*877 FILLER_0_102_1029
*878 FILLER_0_102_1035
*879 FILLER_0_102_1037
*880 FILLER_0_102_1049
*881 FILLER_0_102_1057
*882 FILLER_0_102_109
*883 FILLER_0_102_121
*884 FILLER_0_102_133
*885 FILLER_0_102_139
*886 FILLER_0_102_141
*887 FILLER_0_102_15
*888 FILLER_0_102_153
*889 FILLER_0_102_165
*890 FILLER_0_102_177
*891 FILLER_0_102_189
*892 FILLER_0_102_195
*893 FILLER_0_102_197
*894 FILLER_0_102_209
*895 FILLER_0_102_221
*896 FILLER_0_102_233
*897 FILLER_0_102_245
*898 FILLER_0_102_251
*899 FILLER_0_102_253
*900 FILLER_0_102_265
*901 FILLER_0_102_27
*902 FILLER_0_102_277
*903 FILLER_0_102_289
*904 FILLER_0_102_29
*905 FILLER_0_102_3
*906 FILLER_0_102_301
*907 FILLER_0_102_307
*908 FILLER_0_102_309
*909 FILLER_0_102_321
*910 FILLER_0_102_333
*911 FILLER_0_102_345
*912 FILLER_0_102_357
*913 FILLER_0_102_363
*914 FILLER_0_102_365
*915 FILLER_0_102_377
*916 FILLER_0_102_389
*917 FILLER_0_102_401
*918 FILLER_0_102_41
*919 FILLER_0_102_413
*920 FILLER_0_102_419
*921 FILLER_0_102_421
*922 FILLER_0_102_433
*923 FILLER_0_102_445
*924 FILLER_0_102_457
*925 FILLER_0_102_469
*926 FILLER_0_102_475
*927 FILLER_0_102_477
*928 FILLER_0_102_489
*929 FILLER_0_102_501
*930 FILLER_0_102_513
*931 FILLER_0_102_525
*932 FILLER_0_102_53
*933 FILLER_0_102_531
*934 FILLER_0_102_533
*935 FILLER_0_102_545
*936 FILLER_0_102_557
*937 FILLER_0_102_569
*938 FILLER_0_102_581
*939 FILLER_0_102_587
*940 FILLER_0_102_589
*941 FILLER_0_102_601
*942 FILLER_0_102_613
*943 FILLER_0_102_625
*944 FILLER_0_102_637
*945 FILLER_0_102_643
*946 FILLER_0_102_645
*947 FILLER_0_102_65
*948 FILLER_0_102_657
*949 FILLER_0_102_669
*950 FILLER_0_102_681
*951 FILLER_0_102_693
*952 FILLER_0_102_699
*953 FILLER_0_102_701
*954 FILLER_0_102_713
*955 FILLER_0_102_725
*956 FILLER_0_102_737
*957 FILLER_0_102_749
*958 FILLER_0_102_755
*959 FILLER_0_102_757
*960 FILLER_0_102_769
*961 FILLER_0_102_77
*962 FILLER_0_102_781
*963 FILLER_0_102_793
*964 FILLER_0_102_805
*965 FILLER_0_102_811
*966 FILLER_0_102_813
*967 FILLER_0_102_825
*968 FILLER_0_102_83
*969 FILLER_0_102_837
*970 FILLER_0_102_849
*971 FILLER_0_102_85
*972 FILLER_0_102_861
*973 FILLER_0_102_867
*974 FILLER_0_102_869
*975 FILLER_0_102_881
*976 FILLER_0_102_893
*977 FILLER_0_102_905
*978 FILLER_0_102_917
*979 FILLER_0_102_923
*980 FILLER_0_102_925
*981 FILLER_0_102_937
*982 FILLER_0_102_949
*983 FILLER_0_102_961
*984 FILLER_0_102_97
*985 FILLER_0_102_973
*986 FILLER_0_102_979
*987 FILLER_0_102_981
*988 FILLER_0_102_993
*989 FILLER_0_103_1001
*990 FILLER_0_103_1007
*991 FILLER_0_103_1009
*992 FILLER_0_103_1021
*993 FILLER_0_103_1033
*994 FILLER_0_103_1045
*995 FILLER_0_103_105
*996 FILLER_0_103_1057
*997 FILLER_0_103_111
*998 FILLER_0_103_113
*999 FILLER_0_103_125
*1000 FILLER_0_103_137
*1001 FILLER_0_103_149
*1002 FILLER_0_103_15
*1003 FILLER_0_103_161
*1004 FILLER_0_103_167
*1005 FILLER_0_103_169
*1006 FILLER_0_103_181
*1007 FILLER_0_103_193
*1008 FILLER_0_103_205
*1009 FILLER_0_103_217
*1010 FILLER_0_103_223
*1011 FILLER_0_103_225
*1012 FILLER_0_103_237
*1013 FILLER_0_103_249
*1014 FILLER_0_103_261
*1015 FILLER_0_103_27
*1016 FILLER_0_103_273
*1017 FILLER_0_103_279
*1018 FILLER_0_103_281
*1019 FILLER_0_103_293
*1020 FILLER_0_103_3
*1021 FILLER_0_103_305
*1022 FILLER_0_103_317
*1023 FILLER_0_103_329
*1024 FILLER_0_103_335
*1025 FILLER_0_103_337
*1026 FILLER_0_103_349
*1027 FILLER_0_103_361
*1028 FILLER_0_103_373
*1029 FILLER_0_103_385
*1030 FILLER_0_103_39
*1031 FILLER_0_103_391
*1032 FILLER_0_103_393
*1033 FILLER_0_103_405
*1034 FILLER_0_103_417
*1035 FILLER_0_103_429
*1036 FILLER_0_103_441
*1037 FILLER_0_103_447
*1038 FILLER_0_103_449
*1039 FILLER_0_103_461
*1040 FILLER_0_103_473
*1041 FILLER_0_103_485
*1042 FILLER_0_103_497
*1043 FILLER_0_103_503
*1044 FILLER_0_103_505
*1045 FILLER_0_103_51
*1046 FILLER_0_103_517
*1047 FILLER_0_103_529
*1048 FILLER_0_103_541
*1049 FILLER_0_103_55
*1050 FILLER_0_103_553
*1051 FILLER_0_103_559
*1052 FILLER_0_103_561
*1053 FILLER_0_103_57
*1054 FILLER_0_103_573
*1055 FILLER_0_103_585
*1056 FILLER_0_103_597
*1057 FILLER_0_103_609
*1058 FILLER_0_103_615
*1059 FILLER_0_103_617
*1060 FILLER_0_103_629
*1061 FILLER_0_103_641
*1062 FILLER_0_103_653
*1063 FILLER_0_103_665
*1064 FILLER_0_103_671
*1065 FILLER_0_103_673
*1066 FILLER_0_103_685
*1067 FILLER_0_103_69
*1068 FILLER_0_103_697
*1069 FILLER_0_103_709
*1070 FILLER_0_103_721
*1071 FILLER_0_103_727
*1072 FILLER_0_103_729
*1073 FILLER_0_103_741
*1074 FILLER_0_103_753
*1075 FILLER_0_103_765
*1076 FILLER_0_103_777
*1077 FILLER_0_103_783
*1078 FILLER_0_103_785
*1079 FILLER_0_103_797
*1080 FILLER_0_103_809
*1081 FILLER_0_103_81
*1082 FILLER_0_103_821
*1083 FILLER_0_103_833
*1084 FILLER_0_103_839
*1085 FILLER_0_103_841
*1086 FILLER_0_103_853
*1087 FILLER_0_103_865
*1088 FILLER_0_103_877
*1089 FILLER_0_103_889
*1090 FILLER_0_103_895
*1091 FILLER_0_103_897
*1092 FILLER_0_103_909
*1093 FILLER_0_103_921
*1094 FILLER_0_103_93
*1095 FILLER_0_103_933
*1096 FILLER_0_103_945
*1097 FILLER_0_103_951
*1098 FILLER_0_103_953
*1099 FILLER_0_103_965
*1100 FILLER_0_103_977
*1101 FILLER_0_103_989
*1102 FILLER_0_104_1005
*1103 FILLER_0_104_1017
*1104 FILLER_0_104_1029
*1105 FILLER_0_104_1035
*1106 FILLER_0_104_1037
*1107 FILLER_0_104_1049
*1108 FILLER_0_104_1057
*1109 FILLER_0_104_109
*1110 FILLER_0_104_121
*1111 FILLER_0_104_133
*1112 FILLER_0_104_139
*1113 FILLER_0_104_141
*1114 FILLER_0_104_15
*1115 FILLER_0_104_153
*1116 FILLER_0_104_165
*1117 FILLER_0_104_177
*1118 FILLER_0_104_189
*1119 FILLER_0_104_195
*1120 FILLER_0_104_197
*1121 FILLER_0_104_209
*1122 FILLER_0_104_221
*1123 FILLER_0_104_233
*1124 FILLER_0_104_245
*1125 FILLER_0_104_251
*1126 FILLER_0_104_253
*1127 FILLER_0_104_265
*1128 FILLER_0_104_27
*1129 FILLER_0_104_277
*1130 FILLER_0_104_289
*1131 FILLER_0_104_29
*1132 FILLER_0_104_3
*1133 FILLER_0_104_301
*1134 FILLER_0_104_307
*1135 FILLER_0_104_309
*1136 FILLER_0_104_321
*1137 FILLER_0_104_333
*1138 FILLER_0_104_345
*1139 FILLER_0_104_357
*1140 FILLER_0_104_363
*1141 FILLER_0_104_365
*1142 FILLER_0_104_377
*1143 FILLER_0_104_389
*1144 FILLER_0_104_401
*1145 FILLER_0_104_41
*1146 FILLER_0_104_413
*1147 FILLER_0_104_419
*1148 FILLER_0_104_421
*1149 FILLER_0_104_433
*1150 FILLER_0_104_445
*1151 FILLER_0_104_457
*1152 FILLER_0_104_469
*1153 FILLER_0_104_475
*1154 FILLER_0_104_477
*1155 FILLER_0_104_489
*1156 FILLER_0_104_501
*1157 FILLER_0_104_513
*1158 FILLER_0_104_525
*1159 FILLER_0_104_53
*1160 FILLER_0_104_531
*1161 FILLER_0_104_533
*1162 FILLER_0_104_545
*1163 FILLER_0_104_557
*1164 FILLER_0_104_569
*1165 FILLER_0_104_581
*1166 FILLER_0_104_587
*1167 FILLER_0_104_589
*1168 FILLER_0_104_601
*1169 FILLER_0_104_613
*1170 FILLER_0_104_625
*1171 FILLER_0_104_637
*1172 FILLER_0_104_643
*1173 FILLER_0_104_645
*1174 FILLER_0_104_65
*1175 FILLER_0_104_657
*1176 FILLER_0_104_669
*1177 FILLER_0_104_681
*1178 FILLER_0_104_693
*1179 FILLER_0_104_699
*1180 FILLER_0_104_701
*1181 FILLER_0_104_713
*1182 FILLER_0_104_725
*1183 FILLER_0_104_737
*1184 FILLER_0_104_749
*1185 FILLER_0_104_755
*1186 FILLER_0_104_757
*1187 FILLER_0_104_769
*1188 FILLER_0_104_77
*1189 FILLER_0_104_781
*1190 FILLER_0_104_793
*1191 FILLER_0_104_805
*1192 FILLER_0_104_811
*1193 FILLER_0_104_813
*1194 FILLER_0_104_825
*1195 FILLER_0_104_83
*1196 FILLER_0_104_837
*1197 FILLER_0_104_849
*1198 FILLER_0_104_85
*1199 FILLER_0_104_861
*1200 FILLER_0_104_867
*1201 FILLER_0_104_869
*1202 FILLER_0_104_881
*1203 FILLER_0_104_893
*1204 FILLER_0_104_905
*1205 FILLER_0_104_917
*1206 FILLER_0_104_923
*1207 FILLER_0_104_925
*1208 FILLER_0_104_937
*1209 FILLER_0_104_949
*1210 FILLER_0_104_961
*1211 FILLER_0_104_97
*1212 FILLER_0_104_973
*1213 FILLER_0_104_979
*1214 FILLER_0_104_981
*1215 FILLER_0_104_993
*1216 FILLER_0_105_1001
*1217 FILLER_0_105_1007
*1218 FILLER_0_105_1009
*1219 FILLER_0_105_1021
*1220 FILLER_0_105_1033
*1221 FILLER_0_105_1045
*1222 FILLER_0_105_105
*1223 FILLER_0_105_1057
*1224 FILLER_0_105_111
*1225 FILLER_0_105_113
*1226 FILLER_0_105_125
*1227 FILLER_0_105_137
*1228 FILLER_0_105_149
*1229 FILLER_0_105_15
*1230 FILLER_0_105_161
*1231 FILLER_0_105_167
*1232 FILLER_0_105_169
*1233 FILLER_0_105_181
*1234 FILLER_0_105_193
*1235 FILLER_0_105_205
*1236 FILLER_0_105_217
*1237 FILLER_0_105_223
*1238 FILLER_0_105_225
*1239 FILLER_0_105_237
*1240 FILLER_0_105_249
*1241 FILLER_0_105_261
*1242 FILLER_0_105_27
*1243 FILLER_0_105_273
*1244 FILLER_0_105_279
*1245 FILLER_0_105_281
*1246 FILLER_0_105_293
*1247 FILLER_0_105_3
*1248 FILLER_0_105_305
*1249 FILLER_0_105_317
*1250 FILLER_0_105_329
*1251 FILLER_0_105_335
*1252 FILLER_0_105_337
*1253 FILLER_0_105_349
*1254 FILLER_0_105_361
*1255 FILLER_0_105_373
*1256 FILLER_0_105_385
*1257 FILLER_0_105_39
*1258 FILLER_0_105_391
*1259 FILLER_0_105_393
*1260 FILLER_0_105_405
*1261 FILLER_0_105_417
*1262 FILLER_0_105_429
*1263 FILLER_0_105_441
*1264 FILLER_0_105_447
*1265 FILLER_0_105_449
*1266 FILLER_0_105_461
*1267 FILLER_0_105_473
*1268 FILLER_0_105_485
*1269 FILLER_0_105_497
*1270 FILLER_0_105_503
*1271 FILLER_0_105_505
*1272 FILLER_0_105_51
*1273 FILLER_0_105_517
*1274 FILLER_0_105_529
*1275 FILLER_0_105_541
*1276 FILLER_0_105_55
*1277 FILLER_0_105_553
*1278 FILLER_0_105_559
*1279 FILLER_0_105_561
*1280 FILLER_0_105_57
*1281 FILLER_0_105_573
*1282 FILLER_0_105_585
*1283 FILLER_0_105_597
*1284 FILLER_0_105_609
*1285 FILLER_0_105_615
*1286 FILLER_0_105_617
*1287 FILLER_0_105_629
*1288 FILLER_0_105_641
*1289 FILLER_0_105_653
*1290 FILLER_0_105_665
*1291 FILLER_0_105_671
*1292 FILLER_0_105_673
*1293 FILLER_0_105_685
*1294 FILLER_0_105_69
*1295 FILLER_0_105_697
*1296 FILLER_0_105_709
*1297 FILLER_0_105_721
*1298 FILLER_0_105_727
*1299 FILLER_0_105_729
*1300 FILLER_0_105_741
*1301 FILLER_0_105_753
*1302 FILLER_0_105_765
*1303 FILLER_0_105_777
*1304 FILLER_0_105_783
*1305 FILLER_0_105_785
*1306 FILLER_0_105_797
*1307 FILLER_0_105_809
*1308 FILLER_0_105_81
*1309 FILLER_0_105_821
*1310 FILLER_0_105_833
*1311 FILLER_0_105_839
*1312 FILLER_0_105_841
*1313 FILLER_0_105_853
*1314 FILLER_0_105_865
*1315 FILLER_0_105_877
*1316 FILLER_0_105_889
*1317 FILLER_0_105_895
*1318 FILLER_0_105_897
*1319 FILLER_0_105_909
*1320 FILLER_0_105_921
*1321 FILLER_0_105_93
*1322 FILLER_0_105_933
*1323 FILLER_0_105_945
*1324 FILLER_0_105_951
*1325 FILLER_0_105_953
*1326 FILLER_0_105_965
*1327 FILLER_0_105_977
*1328 FILLER_0_105_989
*1329 FILLER_0_106_1005
*1330 FILLER_0_106_1017
*1331 FILLER_0_106_1029
*1332 FILLER_0_106_1035
*1333 FILLER_0_106_1037
*1334 FILLER_0_106_1049
*1335 FILLER_0_106_1057
*1336 FILLER_0_106_109
*1337 FILLER_0_106_121
*1338 FILLER_0_106_133
*1339 FILLER_0_106_139
*1340 FILLER_0_106_141
*1341 FILLER_0_106_15
*1342 FILLER_0_106_153
*1343 FILLER_0_106_165
*1344 FILLER_0_106_177
*1345 FILLER_0_106_189
*1346 FILLER_0_106_195
*1347 FILLER_0_106_197
*1348 FILLER_0_106_209
*1349 FILLER_0_106_221
*1350 FILLER_0_106_233
*1351 FILLER_0_106_245
*1352 FILLER_0_106_251
*1353 FILLER_0_106_253
*1354 FILLER_0_106_265
*1355 FILLER_0_106_27
*1356 FILLER_0_106_277
*1357 FILLER_0_106_289
*1358 FILLER_0_106_29
*1359 FILLER_0_106_3
*1360 FILLER_0_106_301
*1361 FILLER_0_106_307
*1362 FILLER_0_106_309
*1363 FILLER_0_106_321
*1364 FILLER_0_106_333
*1365 FILLER_0_106_345
*1366 FILLER_0_106_357
*1367 FILLER_0_106_363
*1368 FILLER_0_106_365
*1369 FILLER_0_106_377
*1370 FILLER_0_106_389
*1371 FILLER_0_106_401
*1372 FILLER_0_106_41
*1373 FILLER_0_106_413
*1374 FILLER_0_106_419
*1375 FILLER_0_106_421
*1376 FILLER_0_106_433
*1377 FILLER_0_106_445
*1378 FILLER_0_106_457
*1379 FILLER_0_106_469
*1380 FILLER_0_106_475
*1381 FILLER_0_106_477
*1382 FILLER_0_106_489
*1383 FILLER_0_106_501
*1384 FILLER_0_106_513
*1385 FILLER_0_106_525
*1386 FILLER_0_106_53
*1387 FILLER_0_106_531
*1388 FILLER_0_106_533
*1389 FILLER_0_106_545
*1390 FILLER_0_106_557
*1391 FILLER_0_106_569
*1392 FILLER_0_106_581
*1393 FILLER_0_106_587
*1394 FILLER_0_106_589
*1395 FILLER_0_106_601
*1396 FILLER_0_106_613
*1397 FILLER_0_106_625
*1398 FILLER_0_106_637
*1399 FILLER_0_106_643
*1400 FILLER_0_106_645
*1401 FILLER_0_106_65
*1402 FILLER_0_106_657
*1403 FILLER_0_106_669
*1404 FILLER_0_106_681
*1405 FILLER_0_106_693
*1406 FILLER_0_106_699
*1407 FILLER_0_106_701
*1408 FILLER_0_106_713
*1409 FILLER_0_106_725
*1410 FILLER_0_106_737
*1411 FILLER_0_106_749
*1412 FILLER_0_106_755
*1413 FILLER_0_106_757
*1414 FILLER_0_106_769
*1415 FILLER_0_106_77
*1416 FILLER_0_106_781
*1417 FILLER_0_106_793
*1418 FILLER_0_106_805
*1419 FILLER_0_106_811
*1420 FILLER_0_106_813
*1421 FILLER_0_106_825
*1422 FILLER_0_106_83
*1423 FILLER_0_106_837
*1424 FILLER_0_106_849
*1425 FILLER_0_106_85
*1426 FILLER_0_106_861
*1427 FILLER_0_106_867
*1428 FILLER_0_106_869
*1429 FILLER_0_106_881
*1430 FILLER_0_106_893
*1431 FILLER_0_106_905
*1432 FILLER_0_106_917
*1433 FILLER_0_106_923
*1434 FILLER_0_106_925
*1435 FILLER_0_106_937
*1436 FILLER_0_106_949
*1437 FILLER_0_106_961
*1438 FILLER_0_106_97
*1439 FILLER_0_106_973
*1440 FILLER_0_106_979
*1441 FILLER_0_106_981
*1442 FILLER_0_106_993
*1443 FILLER_0_107_1001
*1444 FILLER_0_107_1007
*1445 FILLER_0_107_1009
*1446 FILLER_0_107_1021
*1447 FILLER_0_107_1033
*1448 FILLER_0_107_1045
*1449 FILLER_0_107_105
*1450 FILLER_0_107_1057
*1451 FILLER_0_107_111
*1452 FILLER_0_107_113
*1453 FILLER_0_107_125
*1454 FILLER_0_107_137
*1455 FILLER_0_107_149
*1456 FILLER_0_107_15
*1457 FILLER_0_107_161
*1458 FILLER_0_107_167
*1459 FILLER_0_107_169
*1460 FILLER_0_107_181
*1461 FILLER_0_107_193
*1462 FILLER_0_107_205
*1463 FILLER_0_107_217
*1464 FILLER_0_107_223
*1465 FILLER_0_107_225
*1466 FILLER_0_107_237
*1467 FILLER_0_107_249
*1468 FILLER_0_107_261
*1469 FILLER_0_107_27
*1470 FILLER_0_107_273
*1471 FILLER_0_107_279
*1472 FILLER_0_107_281
*1473 FILLER_0_107_293
*1474 FILLER_0_107_3
*1475 FILLER_0_107_305
*1476 FILLER_0_107_317
*1477 FILLER_0_107_329
*1478 FILLER_0_107_335
*1479 FILLER_0_107_337
*1480 FILLER_0_107_349
*1481 FILLER_0_107_361
*1482 FILLER_0_107_373
*1483 FILLER_0_107_385
*1484 FILLER_0_107_39
*1485 FILLER_0_107_391
*1486 FILLER_0_107_393
*1487 FILLER_0_107_405
*1488 FILLER_0_107_417
*1489 FILLER_0_107_429
*1490 FILLER_0_107_441
*1491 FILLER_0_107_447
*1492 FILLER_0_107_449
*1493 FILLER_0_107_461
*1494 FILLER_0_107_473
*1495 FILLER_0_107_485
*1496 FILLER_0_107_497
*1497 FILLER_0_107_503
*1498 FILLER_0_107_505
*1499 FILLER_0_107_51
*1500 FILLER_0_107_517
*1501 FILLER_0_107_529
*1502 FILLER_0_107_541
*1503 FILLER_0_107_55
*1504 FILLER_0_107_553
*1505 FILLER_0_107_559
*1506 FILLER_0_107_561
*1507 FILLER_0_107_57
*1508 FILLER_0_107_573
*1509 FILLER_0_107_585
*1510 FILLER_0_107_597
*1511 FILLER_0_107_609
*1512 FILLER_0_107_615
*1513 FILLER_0_107_617
*1514 FILLER_0_107_629
*1515 FILLER_0_107_641
*1516 FILLER_0_107_653
*1517 FILLER_0_107_665
*1518 FILLER_0_107_671
*1519 FILLER_0_107_673
*1520 FILLER_0_107_685
*1521 FILLER_0_107_69
*1522 FILLER_0_107_697
*1523 FILLER_0_107_709
*1524 FILLER_0_107_721
*1525 FILLER_0_107_727
*1526 FILLER_0_107_729
*1527 FILLER_0_107_741
*1528 FILLER_0_107_753
*1529 FILLER_0_107_765
*1530 FILLER_0_107_777
*1531 FILLER_0_107_783
*1532 FILLER_0_107_785
*1533 FILLER_0_107_797
*1534 FILLER_0_107_809
*1535 FILLER_0_107_81
*1536 FILLER_0_107_821
*1537 FILLER_0_107_833
*1538 FILLER_0_107_839
*1539 FILLER_0_107_841
*1540 FILLER_0_107_853
*1541 FILLER_0_107_865
*1542 FILLER_0_107_877
*1543 FILLER_0_107_889
*1544 FILLER_0_107_895
*1545 FILLER_0_107_897
*1546 FILLER_0_107_909
*1547 FILLER_0_107_921
*1548 FILLER_0_107_93
*1549 FILLER_0_107_933
*1550 FILLER_0_107_945
*1551 FILLER_0_107_951
*1552 FILLER_0_107_953
*1553 FILLER_0_107_965
*1554 FILLER_0_107_977
*1555 FILLER_0_107_989
*1556 FILLER_0_108_1005
*1557 FILLER_0_108_1017
*1558 FILLER_0_108_1029
*1559 FILLER_0_108_1035
*1560 FILLER_0_108_1037
*1561 FILLER_0_108_1049
*1562 FILLER_0_108_1057
*1563 FILLER_0_108_109
*1564 FILLER_0_108_121
*1565 FILLER_0_108_133
*1566 FILLER_0_108_139
*1567 FILLER_0_108_141
*1568 FILLER_0_108_153
*1569 FILLER_0_108_165
*1570 FILLER_0_108_177
*1571 FILLER_0_108_189
*1572 FILLER_0_108_19
*1573 FILLER_0_108_195
*1574 FILLER_0_108_197
*1575 FILLER_0_108_209
*1576 FILLER_0_108_221
*1577 FILLER_0_108_233
*1578 FILLER_0_108_245
*1579 FILLER_0_108_251
*1580 FILLER_0_108_253
*1581 FILLER_0_108_265
*1582 FILLER_0_108_27
*1583 FILLER_0_108_277
*1584 FILLER_0_108_289
*1585 FILLER_0_108_29
*1586 FILLER_0_108_301
*1587 FILLER_0_108_307
*1588 FILLER_0_108_309
*1589 FILLER_0_108_321
*1590 FILLER_0_108_333
*1591 FILLER_0_108_345
*1592 FILLER_0_108_357
*1593 FILLER_0_108_363
*1594 FILLER_0_108_365
*1595 FILLER_0_108_377
*1596 FILLER_0_108_389
*1597 FILLER_0_108_401
*1598 FILLER_0_108_41
*1599 FILLER_0_108_413
*1600 FILLER_0_108_419
*1601 FILLER_0_108_421
*1602 FILLER_0_108_433
*1603 FILLER_0_108_445
*1604 FILLER_0_108_457
*1605 FILLER_0_108_469
*1606 FILLER_0_108_475
*1607 FILLER_0_108_477
*1608 FILLER_0_108_489
*1609 FILLER_0_108_501
*1610 FILLER_0_108_513
*1611 FILLER_0_108_525
*1612 FILLER_0_108_53
*1613 FILLER_0_108_531
*1614 FILLER_0_108_533
*1615 FILLER_0_108_545
*1616 FILLER_0_108_557
*1617 FILLER_0_108_569
*1618 FILLER_0_108_581
*1619 FILLER_0_108_587
*1620 FILLER_0_108_589
*1621 FILLER_0_108_601
*1622 FILLER_0_108_613
*1623 FILLER_0_108_625
*1624 FILLER_0_108_637
*1625 FILLER_0_108_643
*1626 FILLER_0_108_645
*1627 FILLER_0_108_65
*1628 FILLER_0_108_657
*1629 FILLER_0_108_669
*1630 FILLER_0_108_681
*1631 FILLER_0_108_693
*1632 FILLER_0_108_699
*1633 FILLER_0_108_7
*1634 FILLER_0_108_701
*1635 FILLER_0_108_713
*1636 FILLER_0_108_725
*1637 FILLER_0_108_737
*1638 FILLER_0_108_749
*1639 FILLER_0_108_755
*1640 FILLER_0_108_757
*1641 FILLER_0_108_769
*1642 FILLER_0_108_77
*1643 FILLER_0_108_781
*1644 FILLER_0_108_793
*1645 FILLER_0_108_805
*1646 FILLER_0_108_811
*1647 FILLER_0_108_813
*1648 FILLER_0_108_825
*1649 FILLER_0_108_83
*1650 FILLER_0_108_837
*1651 FILLER_0_108_849
*1652 FILLER_0_108_85
*1653 FILLER_0_108_861
*1654 FILLER_0_108_867
*1655 FILLER_0_108_869
*1656 FILLER_0_108_881
*1657 FILLER_0_108_893
*1658 FILLER_0_108_905
*1659 FILLER_0_108_917
*1660 FILLER_0_108_923
*1661 FILLER_0_108_925
*1662 FILLER_0_108_937
*1663 FILLER_0_108_949
*1664 FILLER_0_108_961
*1665 FILLER_0_108_97
*1666 FILLER_0_108_973
*1667 FILLER_0_108_979
*1668 FILLER_0_108_981
*1669 FILLER_0_108_993
*1670 FILLER_0_109_1001
*1671 FILLER_0_109_1007
*1672 FILLER_0_109_1009
*1673 FILLER_0_109_1021
*1674 FILLER_0_109_1033
*1675 FILLER_0_109_1045
*1676 FILLER_0_109_105
*1677 FILLER_0_109_1057
*1678 FILLER_0_109_111
*1679 FILLER_0_109_113
*1680 FILLER_0_109_125
*1681 FILLER_0_109_137
*1682 FILLER_0_109_149
*1683 FILLER_0_109_15
*1684 FILLER_0_109_161
*1685 FILLER_0_109_167
*1686 FILLER_0_109_169
*1687 FILLER_0_109_181
*1688 FILLER_0_109_193
*1689 FILLER_0_109_205
*1690 FILLER_0_109_217
*1691 FILLER_0_109_223
*1692 FILLER_0_109_225
*1693 FILLER_0_109_237
*1694 FILLER_0_109_249
*1695 FILLER_0_109_261
*1696 FILLER_0_109_27
*1697 FILLER_0_109_273
*1698 FILLER_0_109_279
*1699 FILLER_0_109_281
*1700 FILLER_0_109_293
*1701 FILLER_0_109_3
*1702 FILLER_0_109_305
*1703 FILLER_0_109_317
*1704 FILLER_0_109_329
*1705 FILLER_0_109_335
*1706 FILLER_0_109_337
*1707 FILLER_0_109_349
*1708 FILLER_0_109_361
*1709 FILLER_0_109_373
*1710 FILLER_0_109_385
*1711 FILLER_0_109_39
*1712 FILLER_0_109_391
*1713 FILLER_0_109_393
*1714 FILLER_0_109_405
*1715 FILLER_0_109_417
*1716 FILLER_0_109_429
*1717 FILLER_0_109_441
*1718 FILLER_0_109_447
*1719 FILLER_0_109_449
*1720 FILLER_0_109_461
*1721 FILLER_0_109_473
*1722 FILLER_0_109_485
*1723 FILLER_0_109_497
*1724 FILLER_0_109_503
*1725 FILLER_0_109_505
*1726 FILLER_0_109_51
*1727 FILLER_0_109_517
*1728 FILLER_0_109_529
*1729 FILLER_0_109_541
*1730 FILLER_0_109_55
*1731 FILLER_0_109_553
*1732 FILLER_0_109_559
*1733 FILLER_0_109_561
*1734 FILLER_0_109_57
*1735 FILLER_0_109_573
*1736 FILLER_0_109_585
*1737 FILLER_0_109_597
*1738 FILLER_0_109_609
*1739 FILLER_0_109_615
*1740 FILLER_0_109_617
*1741 FILLER_0_109_629
*1742 FILLER_0_109_641
*1743 FILLER_0_109_653
*1744 FILLER_0_109_665
*1745 FILLER_0_109_671
*1746 FILLER_0_109_673
*1747 FILLER_0_109_685
*1748 FILLER_0_109_69
*1749 FILLER_0_109_697
*1750 FILLER_0_109_709
*1751 FILLER_0_109_721
*1752 FILLER_0_109_727
*1753 FILLER_0_109_729
*1754 FILLER_0_109_741
*1755 FILLER_0_109_753
*1756 FILLER_0_109_765
*1757 FILLER_0_109_777
*1758 FILLER_0_109_783
*1759 FILLER_0_109_785
*1760 FILLER_0_109_797
*1761 FILLER_0_109_809
*1762 FILLER_0_109_81
*1763 FILLER_0_109_821
*1764 FILLER_0_109_833
*1765 FILLER_0_109_839
*1766 FILLER_0_109_841
*1767 FILLER_0_109_853
*1768 FILLER_0_109_865
*1769 FILLER_0_109_877
*1770 FILLER_0_109_889
*1771 FILLER_0_109_895
*1772 FILLER_0_109_897
*1773 FILLER_0_109_909
*1774 FILLER_0_109_921
*1775 FILLER_0_109_93
*1776 FILLER_0_109_933
*1777 FILLER_0_109_945
*1778 FILLER_0_109_951
*1779 FILLER_0_109_953
*1780 FILLER_0_109_965
*1781 FILLER_0_109_977
*1782 FILLER_0_109_989
*1783 FILLER_0_10_1005
*1784 FILLER_0_10_1017
*1785 FILLER_0_10_1029
*1786 FILLER_0_10_1035
*1787 FILLER_0_10_1037
*1788 FILLER_0_10_1049
*1789 FILLER_0_10_1057
*1790 FILLER_0_10_109
*1791 FILLER_0_10_121
*1792 FILLER_0_10_133
*1793 FILLER_0_10_139
*1794 FILLER_0_10_141
*1795 FILLER_0_10_15
*1796 FILLER_0_10_153
*1797 FILLER_0_10_165
*1798 FILLER_0_10_177
*1799 FILLER_0_10_189
*1800 FILLER_0_10_195
*1801 FILLER_0_10_197
*1802 FILLER_0_10_209
*1803 FILLER_0_10_221
*1804 FILLER_0_10_233
*1805 FILLER_0_10_245
*1806 FILLER_0_10_251
*1807 FILLER_0_10_253
*1808 FILLER_0_10_265
*1809 FILLER_0_10_27
*1810 FILLER_0_10_277
*1811 FILLER_0_10_289
*1812 FILLER_0_10_29
*1813 FILLER_0_10_3
*1814 FILLER_0_10_301
*1815 FILLER_0_10_307
*1816 FILLER_0_10_309
*1817 FILLER_0_10_321
*1818 FILLER_0_10_333
*1819 FILLER_0_10_345
*1820 FILLER_0_10_357
*1821 FILLER_0_10_363
*1822 FILLER_0_10_365
*1823 FILLER_0_10_377
*1824 FILLER_0_10_389
*1825 FILLER_0_10_401
*1826 FILLER_0_10_41
*1827 FILLER_0_10_413
*1828 FILLER_0_10_419
*1829 FILLER_0_10_421
*1830 FILLER_0_10_433
*1831 FILLER_0_10_445
*1832 FILLER_0_10_457
*1833 FILLER_0_10_469
*1834 FILLER_0_10_475
*1835 FILLER_0_10_477
*1836 FILLER_0_10_489
*1837 FILLER_0_10_501
*1838 FILLER_0_10_513
*1839 FILLER_0_10_525
*1840 FILLER_0_10_53
*1841 FILLER_0_10_531
*1842 FILLER_0_10_533
*1843 FILLER_0_10_545
*1844 FILLER_0_10_557
*1845 FILLER_0_10_569
*1846 FILLER_0_10_581
*1847 FILLER_0_10_587
*1848 FILLER_0_10_589
*1849 FILLER_0_10_601
*1850 FILLER_0_10_613
*1851 FILLER_0_10_625
*1852 FILLER_0_10_637
*1853 FILLER_0_10_643
*1854 FILLER_0_10_645
*1855 FILLER_0_10_65
*1856 FILLER_0_10_657
*1857 FILLER_0_10_669
*1858 FILLER_0_10_681
*1859 FILLER_0_10_693
*1860 FILLER_0_10_699
*1861 FILLER_0_10_701
*1862 FILLER_0_10_713
*1863 FILLER_0_10_725
*1864 FILLER_0_10_737
*1865 FILLER_0_10_749
*1866 FILLER_0_10_755
*1867 FILLER_0_10_757
*1868 FILLER_0_10_769
*1869 FILLER_0_10_77
*1870 FILLER_0_10_781
*1871 FILLER_0_10_793
*1872 FILLER_0_10_805
*1873 FILLER_0_10_811
*1874 FILLER_0_10_813
*1875 FILLER_0_10_825
*1876 FILLER_0_10_83
*1877 FILLER_0_10_837
*1878 FILLER_0_10_849
*1879 FILLER_0_10_85
*1880 FILLER_0_10_861
*1881 FILLER_0_10_867
*1882 FILLER_0_10_869
*1883 FILLER_0_10_881
*1884 FILLER_0_10_893
*1885 FILLER_0_10_905
*1886 FILLER_0_10_917
*1887 FILLER_0_10_923
*1888 FILLER_0_10_925
*1889 FILLER_0_10_937
*1890 FILLER_0_10_949
*1891 FILLER_0_10_961
*1892 FILLER_0_10_97
*1893 FILLER_0_10_973
*1894 FILLER_0_10_979
*1895 FILLER_0_10_981
*1896 FILLER_0_10_993
*1897 FILLER_0_110_1005
*1898 FILLER_0_110_1017
*1899 FILLER_0_110_1029
*1900 FILLER_0_110_1035
*1901 FILLER_0_110_1037
*1902 FILLER_0_110_1049
*1903 FILLER_0_110_1057
*1904 FILLER_0_110_109
*1905 FILLER_0_110_121
*1906 FILLER_0_110_133
*1907 FILLER_0_110_139
*1908 FILLER_0_110_141
*1909 FILLER_0_110_15
*1910 FILLER_0_110_153
*1911 FILLER_0_110_165
*1912 FILLER_0_110_177
*1913 FILLER_0_110_189
*1914 FILLER_0_110_195
*1915 FILLER_0_110_197
*1916 FILLER_0_110_209
*1917 FILLER_0_110_221
*1918 FILLER_0_110_233
*1919 FILLER_0_110_245
*1920 FILLER_0_110_251
*1921 FILLER_0_110_253
*1922 FILLER_0_110_265
*1923 FILLER_0_110_27
*1924 FILLER_0_110_277
*1925 FILLER_0_110_289
*1926 FILLER_0_110_29
*1927 FILLER_0_110_3
*1928 FILLER_0_110_301
*1929 FILLER_0_110_307
*1930 FILLER_0_110_309
*1931 FILLER_0_110_321
*1932 FILLER_0_110_333
*1933 FILLER_0_110_345
*1934 FILLER_0_110_357
*1935 FILLER_0_110_363
*1936 FILLER_0_110_365
*1937 FILLER_0_110_377
*1938 FILLER_0_110_389
*1939 FILLER_0_110_401
*1940 FILLER_0_110_41
*1941 FILLER_0_110_413
*1942 FILLER_0_110_419
*1943 FILLER_0_110_421
*1944 FILLER_0_110_433
*1945 FILLER_0_110_445
*1946 FILLER_0_110_457
*1947 FILLER_0_110_469
*1948 FILLER_0_110_475
*1949 FILLER_0_110_477
*1950 FILLER_0_110_489
*1951 FILLER_0_110_501
*1952 FILLER_0_110_513
*1953 FILLER_0_110_525
*1954 FILLER_0_110_53
*1955 FILLER_0_110_531
*1956 FILLER_0_110_533
*1957 FILLER_0_110_545
*1958 FILLER_0_110_557
*1959 FILLER_0_110_569
*1960 FILLER_0_110_581
*1961 FILLER_0_110_587
*1962 FILLER_0_110_589
*1963 FILLER_0_110_601
*1964 FILLER_0_110_613
*1965 FILLER_0_110_625
*1966 FILLER_0_110_637
*1967 FILLER_0_110_643
*1968 FILLER_0_110_645
*1969 FILLER_0_110_65
*1970 FILLER_0_110_657
*1971 FILLER_0_110_669
*1972 FILLER_0_110_681
*1973 FILLER_0_110_693
*1974 FILLER_0_110_699
*1975 FILLER_0_110_701
*1976 FILLER_0_110_713
*1977 FILLER_0_110_725
*1978 FILLER_0_110_737
*1979 FILLER_0_110_749
*1980 FILLER_0_110_755
*1981 FILLER_0_110_757
*1982 FILLER_0_110_769
*1983 FILLER_0_110_77
*1984 FILLER_0_110_781
*1985 FILLER_0_110_793
*1986 FILLER_0_110_805
*1987 FILLER_0_110_811
*1988 FILLER_0_110_813
*1989 FILLER_0_110_825
*1990 FILLER_0_110_83
*1991 FILLER_0_110_837
*1992 FILLER_0_110_849
*1993 FILLER_0_110_85
*1994 FILLER_0_110_861
*1995 FILLER_0_110_867
*1996 FILLER_0_110_869
*1997 FILLER_0_110_881
*1998 FILLER_0_110_893
*1999 FILLER_0_110_905
*2000 FILLER_0_110_917
*2001 FILLER_0_110_923
*2002 FILLER_0_110_925
*2003 FILLER_0_110_937
*2004 FILLER_0_110_949
*2005 FILLER_0_110_961
*2006 FILLER_0_110_97
*2007 FILLER_0_110_973
*2008 FILLER_0_110_979
*2009 FILLER_0_110_981
*2010 FILLER_0_110_993
*2011 FILLER_0_111_1001
*2012 FILLER_0_111_1007
*2013 FILLER_0_111_1009
*2014 FILLER_0_111_1021
*2015 FILLER_0_111_1033
*2016 FILLER_0_111_1045
*2017 FILLER_0_111_105
*2018 FILLER_0_111_1057
*2019 FILLER_0_111_111
*2020 FILLER_0_111_113
*2021 FILLER_0_111_125
*2022 FILLER_0_111_137
*2023 FILLER_0_111_149
*2024 FILLER_0_111_15
*2025 FILLER_0_111_161
*2026 FILLER_0_111_167
*2027 FILLER_0_111_169
*2028 FILLER_0_111_181
*2029 FILLER_0_111_193
*2030 FILLER_0_111_205
*2031 FILLER_0_111_217
*2032 FILLER_0_111_223
*2033 FILLER_0_111_225
*2034 FILLER_0_111_237
*2035 FILLER_0_111_249
*2036 FILLER_0_111_261
*2037 FILLER_0_111_27
*2038 FILLER_0_111_273
*2039 FILLER_0_111_279
*2040 FILLER_0_111_281
*2041 FILLER_0_111_293
*2042 FILLER_0_111_3
*2043 FILLER_0_111_305
*2044 FILLER_0_111_317
*2045 FILLER_0_111_329
*2046 FILLER_0_111_335
*2047 FILLER_0_111_337
*2048 FILLER_0_111_349
*2049 FILLER_0_111_361
*2050 FILLER_0_111_373
*2051 FILLER_0_111_385
*2052 FILLER_0_111_39
*2053 FILLER_0_111_391
*2054 FILLER_0_111_393
*2055 FILLER_0_111_405
*2056 FILLER_0_111_417
*2057 FILLER_0_111_429
*2058 FILLER_0_111_441
*2059 FILLER_0_111_447
*2060 FILLER_0_111_449
*2061 FILLER_0_111_461
*2062 FILLER_0_111_473
*2063 FILLER_0_111_485
*2064 FILLER_0_111_497
*2065 FILLER_0_111_503
*2066 FILLER_0_111_505
*2067 FILLER_0_111_51
*2068 FILLER_0_111_517
*2069 FILLER_0_111_529
*2070 FILLER_0_111_541
*2071 FILLER_0_111_55
*2072 FILLER_0_111_553
*2073 FILLER_0_111_559
*2074 FILLER_0_111_561
*2075 FILLER_0_111_57
*2076 FILLER_0_111_573
*2077 FILLER_0_111_585
*2078 FILLER_0_111_597
*2079 FILLER_0_111_609
*2080 FILLER_0_111_615
*2081 FILLER_0_111_617
*2082 FILLER_0_111_629
*2083 FILLER_0_111_641
*2084 FILLER_0_111_653
*2085 FILLER_0_111_665
*2086 FILLER_0_111_671
*2087 FILLER_0_111_673
*2088 FILLER_0_111_685
*2089 FILLER_0_111_69
*2090 FILLER_0_111_697
*2091 FILLER_0_111_709
*2092 FILLER_0_111_721
*2093 FILLER_0_111_727
*2094 FILLER_0_111_729
*2095 FILLER_0_111_741
*2096 FILLER_0_111_753
*2097 FILLER_0_111_765
*2098 FILLER_0_111_777
*2099 FILLER_0_111_783
*2100 FILLER_0_111_785
*2101 FILLER_0_111_797
*2102 FILLER_0_111_809
*2103 FILLER_0_111_81
*2104 FILLER_0_111_821
*2105 FILLER_0_111_833
*2106 FILLER_0_111_839
*2107 FILLER_0_111_841
*2108 FILLER_0_111_853
*2109 FILLER_0_111_865
*2110 FILLER_0_111_877
*2111 FILLER_0_111_889
*2112 FILLER_0_111_895
*2113 FILLER_0_111_897
*2114 FILLER_0_111_909
*2115 FILLER_0_111_921
*2116 FILLER_0_111_93
*2117 FILLER_0_111_933
*2118 FILLER_0_111_945
*2119 FILLER_0_111_951
*2120 FILLER_0_111_953
*2121 FILLER_0_111_965
*2122 FILLER_0_111_977
*2123 FILLER_0_111_989
*2124 FILLER_0_112_1005
*2125 FILLER_0_112_1017
*2126 FILLER_0_112_1029
*2127 FILLER_0_112_1035
*2128 FILLER_0_112_1037
*2129 FILLER_0_112_1049
*2130 FILLER_0_112_1057
*2131 FILLER_0_112_109
*2132 FILLER_0_112_121
*2133 FILLER_0_112_133
*2134 FILLER_0_112_139
*2135 FILLER_0_112_141
*2136 FILLER_0_112_15
*2137 FILLER_0_112_153
*2138 FILLER_0_112_165
*2139 FILLER_0_112_177
*2140 FILLER_0_112_189
*2141 FILLER_0_112_195
*2142 FILLER_0_112_197
*2143 FILLER_0_112_209
*2144 FILLER_0_112_221
*2145 FILLER_0_112_233
*2146 FILLER_0_112_245
*2147 FILLER_0_112_251
*2148 FILLER_0_112_253
*2149 FILLER_0_112_265
*2150 FILLER_0_112_27
*2151 FILLER_0_112_277
*2152 FILLER_0_112_289
*2153 FILLER_0_112_29
*2154 FILLER_0_112_3
*2155 FILLER_0_112_301
*2156 FILLER_0_112_307
*2157 FILLER_0_112_309
*2158 FILLER_0_112_321
*2159 FILLER_0_112_333
*2160 FILLER_0_112_345
*2161 FILLER_0_112_357
*2162 FILLER_0_112_363
*2163 FILLER_0_112_365
*2164 FILLER_0_112_377
*2165 FILLER_0_112_389
*2166 FILLER_0_112_401
*2167 FILLER_0_112_41
*2168 FILLER_0_112_413
*2169 FILLER_0_112_419
*2170 FILLER_0_112_421
*2171 FILLER_0_112_433
*2172 FILLER_0_112_445
*2173 FILLER_0_112_457
*2174 FILLER_0_112_469
*2175 FILLER_0_112_475
*2176 FILLER_0_112_477
*2177 FILLER_0_112_489
*2178 FILLER_0_112_501
*2179 FILLER_0_112_513
*2180 FILLER_0_112_525
*2181 FILLER_0_112_53
*2182 FILLER_0_112_531
*2183 FILLER_0_112_533
*2184 FILLER_0_112_545
*2185 FILLER_0_112_557
*2186 FILLER_0_112_569
*2187 FILLER_0_112_581
*2188 FILLER_0_112_587
*2189 FILLER_0_112_589
*2190 FILLER_0_112_601
*2191 FILLER_0_112_613
*2192 FILLER_0_112_625
*2193 FILLER_0_112_637
*2194 FILLER_0_112_643
*2195 FILLER_0_112_645
*2196 FILLER_0_112_65
*2197 FILLER_0_112_657
*2198 FILLER_0_112_669
*2199 FILLER_0_112_681
*2200 FILLER_0_112_693
*2201 FILLER_0_112_699
*2202 FILLER_0_112_701
*2203 FILLER_0_112_713
*2204 FILLER_0_112_725
*2205 FILLER_0_112_737
*2206 FILLER_0_112_749
*2207 FILLER_0_112_755
*2208 FILLER_0_112_757
*2209 FILLER_0_112_769
*2210 FILLER_0_112_77
*2211 FILLER_0_112_781
*2212 FILLER_0_112_793
*2213 FILLER_0_112_805
*2214 FILLER_0_112_811
*2215 FILLER_0_112_813
*2216 FILLER_0_112_825
*2217 FILLER_0_112_83
*2218 FILLER_0_112_837
*2219 FILLER_0_112_849
*2220 FILLER_0_112_85
*2221 FILLER_0_112_861
*2222 FILLER_0_112_867
*2223 FILLER_0_112_869
*2224 FILLER_0_112_881
*2225 FILLER_0_112_893
*2226 FILLER_0_112_905
*2227 FILLER_0_112_917
*2228 FILLER_0_112_923
*2229 FILLER_0_112_925
*2230 FILLER_0_112_937
*2231 FILLER_0_112_949
*2232 FILLER_0_112_961
*2233 FILLER_0_112_97
*2234 FILLER_0_112_973
*2235 FILLER_0_112_979
*2236 FILLER_0_112_981
*2237 FILLER_0_112_993
*2238 FILLER_0_113_1001
*2239 FILLER_0_113_1007
*2240 FILLER_0_113_1009
*2241 FILLER_0_113_1021
*2242 FILLER_0_113_1033
*2243 FILLER_0_113_1045
*2244 FILLER_0_113_105
*2245 FILLER_0_113_1057
*2246 FILLER_0_113_111
*2247 FILLER_0_113_113
*2248 FILLER_0_113_125
*2249 FILLER_0_113_137
*2250 FILLER_0_113_149
*2251 FILLER_0_113_161
*2252 FILLER_0_113_167
*2253 FILLER_0_113_169
*2254 FILLER_0_113_18
*2255 FILLER_0_113_181
*2256 FILLER_0_113_193
*2257 FILLER_0_113_205
*2258 FILLER_0_113_217
*2259 FILLER_0_113_223
*2260 FILLER_0_113_225
*2261 FILLER_0_113_237
*2262 FILLER_0_113_249
*2263 FILLER_0_113_261
*2264 FILLER_0_113_273
*2265 FILLER_0_113_279
*2266 FILLER_0_113_281
*2267 FILLER_0_113_293
*2268 FILLER_0_113_30
*2269 FILLER_0_113_305
*2270 FILLER_0_113_317
*2271 FILLER_0_113_329
*2272 FILLER_0_113_335
*2273 FILLER_0_113_337
*2274 FILLER_0_113_349
*2275 FILLER_0_113_361
*2276 FILLER_0_113_373
*2277 FILLER_0_113_385
*2278 FILLER_0_113_391
*2279 FILLER_0_113_393
*2280 FILLER_0_113_405
*2281 FILLER_0_113_417
*2282 FILLER_0_113_42
*2283 FILLER_0_113_429
*2284 FILLER_0_113_441
*2285 FILLER_0_113_447
*2286 FILLER_0_113_449
*2287 FILLER_0_113_461
*2288 FILLER_0_113_473
*2289 FILLER_0_113_485
*2290 FILLER_0_113_497
*2291 FILLER_0_113_503
*2292 FILLER_0_113_505
*2293 FILLER_0_113_517
*2294 FILLER_0_113_529
*2295 FILLER_0_113_54
*2296 FILLER_0_113_541
*2297 FILLER_0_113_553
*2298 FILLER_0_113_559
*2299 FILLER_0_113_561
*2300 FILLER_0_113_57
*2301 FILLER_0_113_573
*2302 FILLER_0_113_585
*2303 FILLER_0_113_597
*2304 FILLER_0_113_6
*2305 FILLER_0_113_609
*2306 FILLER_0_113_615
*2307 FILLER_0_113_617
*2308 FILLER_0_113_629
*2309 FILLER_0_113_641
*2310 FILLER_0_113_653
*2311 FILLER_0_113_665
*2312 FILLER_0_113_671
*2313 FILLER_0_113_673
*2314 FILLER_0_113_685
*2315 FILLER_0_113_69
*2316 FILLER_0_113_697
*2317 FILLER_0_113_709
*2318 FILLER_0_113_721
*2319 FILLER_0_113_727
*2320 FILLER_0_113_729
*2321 FILLER_0_113_741
*2322 FILLER_0_113_753
*2323 FILLER_0_113_765
*2324 FILLER_0_113_777
*2325 FILLER_0_113_783
*2326 FILLER_0_113_785
*2327 FILLER_0_113_797
*2328 FILLER_0_113_809
*2329 FILLER_0_113_81
*2330 FILLER_0_113_821
*2331 FILLER_0_113_833
*2332 FILLER_0_113_839
*2333 FILLER_0_113_841
*2334 FILLER_0_113_853
*2335 FILLER_0_113_865
*2336 FILLER_0_113_877
*2337 FILLER_0_113_889
*2338 FILLER_0_113_895
*2339 FILLER_0_113_897
*2340 FILLER_0_113_909
*2341 FILLER_0_113_921
*2342 FILLER_0_113_93
*2343 FILLER_0_113_933
*2344 FILLER_0_113_945
*2345 FILLER_0_113_951
*2346 FILLER_0_113_953
*2347 FILLER_0_113_965
*2348 FILLER_0_113_977
*2349 FILLER_0_113_989
*2350 FILLER_0_114_1005
*2351 FILLER_0_114_1017
*2352 FILLER_0_114_1029
*2353 FILLER_0_114_1035
*2354 FILLER_0_114_1037
*2355 FILLER_0_114_1049
*2356 FILLER_0_114_1057
*2357 FILLER_0_114_109
*2358 FILLER_0_114_121
*2359 FILLER_0_114_133
*2360 FILLER_0_114_139
*2361 FILLER_0_114_141
*2362 FILLER_0_114_15
*2363 FILLER_0_114_153
*2364 FILLER_0_114_165
*2365 FILLER_0_114_177
*2366 FILLER_0_114_189
*2367 FILLER_0_114_195
*2368 FILLER_0_114_197
*2369 FILLER_0_114_209
*2370 FILLER_0_114_221
*2371 FILLER_0_114_233
*2372 FILLER_0_114_245
*2373 FILLER_0_114_251
*2374 FILLER_0_114_253
*2375 FILLER_0_114_265
*2376 FILLER_0_114_27
*2377 FILLER_0_114_277
*2378 FILLER_0_114_289
*2379 FILLER_0_114_29
*2380 FILLER_0_114_3
*2381 FILLER_0_114_301
*2382 FILLER_0_114_307
*2383 FILLER_0_114_309
*2384 FILLER_0_114_321
*2385 FILLER_0_114_333
*2386 FILLER_0_114_345
*2387 FILLER_0_114_357
*2388 FILLER_0_114_363
*2389 FILLER_0_114_365
*2390 FILLER_0_114_377
*2391 FILLER_0_114_389
*2392 FILLER_0_114_401
*2393 FILLER_0_114_41
*2394 FILLER_0_114_413
*2395 FILLER_0_114_419
*2396 FILLER_0_114_421
*2397 FILLER_0_114_433
*2398 FILLER_0_114_445
*2399 FILLER_0_114_457
*2400 FILLER_0_114_469
*2401 FILLER_0_114_475
*2402 FILLER_0_114_477
*2403 FILLER_0_114_489
*2404 FILLER_0_114_501
*2405 FILLER_0_114_513
*2406 FILLER_0_114_525
*2407 FILLER_0_114_53
*2408 FILLER_0_114_531
*2409 FILLER_0_114_533
*2410 FILLER_0_114_545
*2411 FILLER_0_114_557
*2412 FILLER_0_114_569
*2413 FILLER_0_114_581
*2414 FILLER_0_114_587
*2415 FILLER_0_114_589
*2416 FILLER_0_114_601
*2417 FILLER_0_114_613
*2418 FILLER_0_114_625
*2419 FILLER_0_114_637
*2420 FILLER_0_114_643
*2421 FILLER_0_114_645
*2422 FILLER_0_114_65
*2423 FILLER_0_114_657
*2424 FILLER_0_114_669
*2425 FILLER_0_114_681
*2426 FILLER_0_114_693
*2427 FILLER_0_114_699
*2428 FILLER_0_114_701
*2429 FILLER_0_114_713
*2430 FILLER_0_114_725
*2431 FILLER_0_114_737
*2432 FILLER_0_114_749
*2433 FILLER_0_114_755
*2434 FILLER_0_114_757
*2435 FILLER_0_114_769
*2436 FILLER_0_114_77
*2437 FILLER_0_114_781
*2438 FILLER_0_114_793
*2439 FILLER_0_114_805
*2440 FILLER_0_114_811
*2441 FILLER_0_114_813
*2442 FILLER_0_114_825
*2443 FILLER_0_114_83
*2444 FILLER_0_114_837
*2445 FILLER_0_114_849
*2446 FILLER_0_114_85
*2447 FILLER_0_114_861
*2448 FILLER_0_114_867
*2449 FILLER_0_114_869
*2450 FILLER_0_114_881
*2451 FILLER_0_114_893
*2452 FILLER_0_114_905
*2453 FILLER_0_114_917
*2454 FILLER_0_114_923
*2455 FILLER_0_114_925
*2456 FILLER_0_114_937
*2457 FILLER_0_114_949
*2458 FILLER_0_114_961
*2459 FILLER_0_114_97
*2460 FILLER_0_114_973
*2461 FILLER_0_114_979
*2462 FILLER_0_114_981
*2463 FILLER_0_114_993
*2464 FILLER_0_115_1001
*2465 FILLER_0_115_1007
*2466 FILLER_0_115_1009
*2467 FILLER_0_115_1021
*2468 FILLER_0_115_1033
*2469 FILLER_0_115_1045
*2470 FILLER_0_115_105
*2471 FILLER_0_115_1057
*2472 FILLER_0_115_111
*2473 FILLER_0_115_113
*2474 FILLER_0_115_125
*2475 FILLER_0_115_137
*2476 FILLER_0_115_149
*2477 FILLER_0_115_15
*2478 FILLER_0_115_161
*2479 FILLER_0_115_167
*2480 FILLER_0_115_169
*2481 FILLER_0_115_181
*2482 FILLER_0_115_193
*2483 FILLER_0_115_205
*2484 FILLER_0_115_217
*2485 FILLER_0_115_223
*2486 FILLER_0_115_225
*2487 FILLER_0_115_237
*2488 FILLER_0_115_249
*2489 FILLER_0_115_261
*2490 FILLER_0_115_27
*2491 FILLER_0_115_273
*2492 FILLER_0_115_279
*2493 FILLER_0_115_281
*2494 FILLER_0_115_293
*2495 FILLER_0_115_3
*2496 FILLER_0_115_305
*2497 FILLER_0_115_317
*2498 FILLER_0_115_329
*2499 FILLER_0_115_335
*2500 FILLER_0_115_337
*2501 FILLER_0_115_349
*2502 FILLER_0_115_361
*2503 FILLER_0_115_373
*2504 FILLER_0_115_385
*2505 FILLER_0_115_39
*2506 FILLER_0_115_391
*2507 FILLER_0_115_393
*2508 FILLER_0_115_405
*2509 FILLER_0_115_417
*2510 FILLER_0_115_429
*2511 FILLER_0_115_441
*2512 FILLER_0_115_447
*2513 FILLER_0_115_449
*2514 FILLER_0_115_461
*2515 FILLER_0_115_473
*2516 FILLER_0_115_485
*2517 FILLER_0_115_497
*2518 FILLER_0_115_503
*2519 FILLER_0_115_505
*2520 FILLER_0_115_51
*2521 FILLER_0_115_517
*2522 FILLER_0_115_529
*2523 FILLER_0_115_541
*2524 FILLER_0_115_55
*2525 FILLER_0_115_553
*2526 FILLER_0_115_559
*2527 FILLER_0_115_561
*2528 FILLER_0_115_57
*2529 FILLER_0_115_573
*2530 FILLER_0_115_585
*2531 FILLER_0_115_597
*2532 FILLER_0_115_609
*2533 FILLER_0_115_615
*2534 FILLER_0_115_617
*2535 FILLER_0_115_629
*2536 FILLER_0_115_641
*2537 FILLER_0_115_653
*2538 FILLER_0_115_665
*2539 FILLER_0_115_671
*2540 FILLER_0_115_673
*2541 FILLER_0_115_685
*2542 FILLER_0_115_69
*2543 FILLER_0_115_697
*2544 FILLER_0_115_709
*2545 FILLER_0_115_721
*2546 FILLER_0_115_727
*2547 FILLER_0_115_729
*2548 FILLER_0_115_741
*2549 FILLER_0_115_753
*2550 FILLER_0_115_765
*2551 FILLER_0_115_777
*2552 FILLER_0_115_783
*2553 FILLER_0_115_785
*2554 FILLER_0_115_797
*2555 FILLER_0_115_809
*2556 FILLER_0_115_81
*2557 FILLER_0_115_821
*2558 FILLER_0_115_833
*2559 FILLER_0_115_839
*2560 FILLER_0_115_841
*2561 FILLER_0_115_853
*2562 FILLER_0_115_865
*2563 FILLER_0_115_877
*2564 FILLER_0_115_889
*2565 FILLER_0_115_895
*2566 FILLER_0_115_897
*2567 FILLER_0_115_909
*2568 FILLER_0_115_921
*2569 FILLER_0_115_93
*2570 FILLER_0_115_933
*2571 FILLER_0_115_945
*2572 FILLER_0_115_951
*2573 FILLER_0_115_953
*2574 FILLER_0_115_965
*2575 FILLER_0_115_977
*2576 FILLER_0_115_989
*2577 FILLER_0_116_1005
*2578 FILLER_0_116_1017
*2579 FILLER_0_116_1029
*2580 FILLER_0_116_1035
*2581 FILLER_0_116_1037
*2582 FILLER_0_116_1049
*2583 FILLER_0_116_1057
*2584 FILLER_0_116_109
*2585 FILLER_0_116_121
*2586 FILLER_0_116_133
*2587 FILLER_0_116_139
*2588 FILLER_0_116_141
*2589 FILLER_0_116_15
*2590 FILLER_0_116_153
*2591 FILLER_0_116_165
*2592 FILLER_0_116_177
*2593 FILLER_0_116_189
*2594 FILLER_0_116_195
*2595 FILLER_0_116_197
*2596 FILLER_0_116_209
*2597 FILLER_0_116_221
*2598 FILLER_0_116_233
*2599 FILLER_0_116_245
*2600 FILLER_0_116_251
*2601 FILLER_0_116_253
*2602 FILLER_0_116_265
*2603 FILLER_0_116_27
*2604 FILLER_0_116_277
*2605 FILLER_0_116_289
*2606 FILLER_0_116_29
*2607 FILLER_0_116_3
*2608 FILLER_0_116_301
*2609 FILLER_0_116_307
*2610 FILLER_0_116_309
*2611 FILLER_0_116_321
*2612 FILLER_0_116_333
*2613 FILLER_0_116_345
*2614 FILLER_0_116_357
*2615 FILLER_0_116_363
*2616 FILLER_0_116_365
*2617 FILLER_0_116_377
*2618 FILLER_0_116_389
*2619 FILLER_0_116_401
*2620 FILLER_0_116_41
*2621 FILLER_0_116_413
*2622 FILLER_0_116_419
*2623 FILLER_0_116_421
*2624 FILLER_0_116_433
*2625 FILLER_0_116_445
*2626 FILLER_0_116_457
*2627 FILLER_0_116_469
*2628 FILLER_0_116_475
*2629 FILLER_0_116_477
*2630 FILLER_0_116_489
*2631 FILLER_0_116_501
*2632 FILLER_0_116_513
*2633 FILLER_0_116_525
*2634 FILLER_0_116_53
*2635 FILLER_0_116_531
*2636 FILLER_0_116_533
*2637 FILLER_0_116_545
*2638 FILLER_0_116_557
*2639 FILLER_0_116_569
*2640 FILLER_0_116_581
*2641 FILLER_0_116_587
*2642 FILLER_0_116_589
*2643 FILLER_0_116_601
*2644 FILLER_0_116_613
*2645 FILLER_0_116_625
*2646 FILLER_0_116_637
*2647 FILLER_0_116_643
*2648 FILLER_0_116_645
*2649 FILLER_0_116_65
*2650 FILLER_0_116_657
*2651 FILLER_0_116_669
*2652 FILLER_0_116_681
*2653 FILLER_0_116_693
*2654 FILLER_0_116_699
*2655 FILLER_0_116_701
*2656 FILLER_0_116_713
*2657 FILLER_0_116_725
*2658 FILLER_0_116_737
*2659 FILLER_0_116_749
*2660 FILLER_0_116_755
*2661 FILLER_0_116_757
*2662 FILLER_0_116_769
*2663 FILLER_0_116_77
*2664 FILLER_0_116_781
*2665 FILLER_0_116_793
*2666 FILLER_0_116_805
*2667 FILLER_0_116_811
*2668 FILLER_0_116_813
*2669 FILLER_0_116_825
*2670 FILLER_0_116_83
*2671 FILLER_0_116_837
*2672 FILLER_0_116_849
*2673 FILLER_0_116_85
*2674 FILLER_0_116_861
*2675 FILLER_0_116_867
*2676 FILLER_0_116_869
*2677 FILLER_0_116_881
*2678 FILLER_0_116_893
*2679 FILLER_0_116_905
*2680 FILLER_0_116_917
*2681 FILLER_0_116_923
*2682 FILLER_0_116_925
*2683 FILLER_0_116_937
*2684 FILLER_0_116_949
*2685 FILLER_0_116_961
*2686 FILLER_0_116_97
*2687 FILLER_0_116_973
*2688 FILLER_0_116_979
*2689 FILLER_0_116_981
*2690 FILLER_0_116_993
*2691 FILLER_0_117_1001
*2692 FILLER_0_117_1007
*2693 FILLER_0_117_1009
*2694 FILLER_0_117_1021
*2695 FILLER_0_117_1033
*2696 FILLER_0_117_1045
*2697 FILLER_0_117_105
*2698 FILLER_0_117_1057
*2699 FILLER_0_117_111
*2700 FILLER_0_117_113
*2701 FILLER_0_117_125
*2702 FILLER_0_117_137
*2703 FILLER_0_117_149
*2704 FILLER_0_117_15
*2705 FILLER_0_117_161
*2706 FILLER_0_117_167
*2707 FILLER_0_117_169
*2708 FILLER_0_117_181
*2709 FILLER_0_117_193
*2710 FILLER_0_117_205
*2711 FILLER_0_117_217
*2712 FILLER_0_117_223
*2713 FILLER_0_117_225
*2714 FILLER_0_117_237
*2715 FILLER_0_117_249
*2716 FILLER_0_117_261
*2717 FILLER_0_117_27
*2718 FILLER_0_117_273
*2719 FILLER_0_117_279
*2720 FILLER_0_117_281
*2721 FILLER_0_117_293
*2722 FILLER_0_117_3
*2723 FILLER_0_117_305
*2724 FILLER_0_117_317
*2725 FILLER_0_117_329
*2726 FILLER_0_117_335
*2727 FILLER_0_117_337
*2728 FILLER_0_117_349
*2729 FILLER_0_117_361
*2730 FILLER_0_117_373
*2731 FILLER_0_117_385
*2732 FILLER_0_117_39
*2733 FILLER_0_117_391
*2734 FILLER_0_117_393
*2735 FILLER_0_117_405
*2736 FILLER_0_117_417
*2737 FILLER_0_117_429
*2738 FILLER_0_117_441
*2739 FILLER_0_117_447
*2740 FILLER_0_117_449
*2741 FILLER_0_117_461
*2742 FILLER_0_117_473
*2743 FILLER_0_117_485
*2744 FILLER_0_117_497
*2745 FILLER_0_117_503
*2746 FILLER_0_117_505
*2747 FILLER_0_117_51
*2748 FILLER_0_117_517
*2749 FILLER_0_117_529
*2750 FILLER_0_117_541
*2751 FILLER_0_117_55
*2752 FILLER_0_117_553
*2753 FILLER_0_117_559
*2754 FILLER_0_117_561
*2755 FILLER_0_117_57
*2756 FILLER_0_117_573
*2757 FILLER_0_117_585
*2758 FILLER_0_117_597
*2759 FILLER_0_117_609
*2760 FILLER_0_117_615
*2761 FILLER_0_117_617
*2762 FILLER_0_117_629
*2763 FILLER_0_117_641
*2764 FILLER_0_117_653
*2765 FILLER_0_117_665
*2766 FILLER_0_117_671
*2767 FILLER_0_117_673
*2768 FILLER_0_117_685
*2769 FILLER_0_117_69
*2770 FILLER_0_117_697
*2771 FILLER_0_117_709
*2772 FILLER_0_117_721
*2773 FILLER_0_117_727
*2774 FILLER_0_117_729
*2775 FILLER_0_117_741
*2776 FILLER_0_117_753
*2777 FILLER_0_117_765
*2778 FILLER_0_117_777
*2779 FILLER_0_117_783
*2780 FILLER_0_117_785
*2781 FILLER_0_117_797
*2782 FILLER_0_117_809
*2783 FILLER_0_117_81
*2784 FILLER_0_117_821
*2785 FILLER_0_117_833
*2786 FILLER_0_117_839
*2787 FILLER_0_117_841
*2788 FILLER_0_117_853
*2789 FILLER_0_117_865
*2790 FILLER_0_117_877
*2791 FILLER_0_117_889
*2792 FILLER_0_117_895
*2793 FILLER_0_117_897
*2794 FILLER_0_117_909
*2795 FILLER_0_117_921
*2796 FILLER_0_117_93
*2797 FILLER_0_117_933
*2798 FILLER_0_117_945
*2799 FILLER_0_117_951
*2800 FILLER_0_117_953
*2801 FILLER_0_117_965
*2802 FILLER_0_117_977
*2803 FILLER_0_117_989
*2804 FILLER_0_118_1005
*2805 FILLER_0_118_1017
*2806 FILLER_0_118_1029
*2807 FILLER_0_118_1035
*2808 FILLER_0_118_1037
*2809 FILLER_0_118_1049
*2810 FILLER_0_118_1057
*2811 FILLER_0_118_109
*2812 FILLER_0_118_121
*2813 FILLER_0_118_133
*2814 FILLER_0_118_139
*2815 FILLER_0_118_141
*2816 FILLER_0_118_15
*2817 FILLER_0_118_153
*2818 FILLER_0_118_165
*2819 FILLER_0_118_177
*2820 FILLER_0_118_189
*2821 FILLER_0_118_195
*2822 FILLER_0_118_197
*2823 FILLER_0_118_209
*2824 FILLER_0_118_221
*2825 FILLER_0_118_233
*2826 FILLER_0_118_245
*2827 FILLER_0_118_251
*2828 FILLER_0_118_253
*2829 FILLER_0_118_265
*2830 FILLER_0_118_27
*2831 FILLER_0_118_277
*2832 FILLER_0_118_289
*2833 FILLER_0_118_29
*2834 FILLER_0_118_3
*2835 FILLER_0_118_301
*2836 FILLER_0_118_307
*2837 FILLER_0_118_309
*2838 FILLER_0_118_321
*2839 FILLER_0_118_333
*2840 FILLER_0_118_345
*2841 FILLER_0_118_357
*2842 FILLER_0_118_363
*2843 FILLER_0_118_365
*2844 FILLER_0_118_377
*2845 FILLER_0_118_389
*2846 FILLER_0_118_401
*2847 FILLER_0_118_41
*2848 FILLER_0_118_413
*2849 FILLER_0_118_419
*2850 FILLER_0_118_421
*2851 FILLER_0_118_433
*2852 FILLER_0_118_445
*2853 FILLER_0_118_457
*2854 FILLER_0_118_469
*2855 FILLER_0_118_475
*2856 FILLER_0_118_477
*2857 FILLER_0_118_489
*2858 FILLER_0_118_501
*2859 FILLER_0_118_513
*2860 FILLER_0_118_525
*2861 FILLER_0_118_53
*2862 FILLER_0_118_531
*2863 FILLER_0_118_533
*2864 FILLER_0_118_545
*2865 FILLER_0_118_557
*2866 FILLER_0_118_569
*2867 FILLER_0_118_581
*2868 FILLER_0_118_587
*2869 FILLER_0_118_589
*2870 FILLER_0_118_601
*2871 FILLER_0_118_613
*2872 FILLER_0_118_625
*2873 FILLER_0_118_637
*2874 FILLER_0_118_643
*2875 FILLER_0_118_645
*2876 FILLER_0_118_65
*2877 FILLER_0_118_657
*2878 FILLER_0_118_669
*2879 FILLER_0_118_681
*2880 FILLER_0_118_693
*2881 FILLER_0_118_699
*2882 FILLER_0_118_701
*2883 FILLER_0_118_713
*2884 FILLER_0_118_725
*2885 FILLER_0_118_737
*2886 FILLER_0_118_749
*2887 FILLER_0_118_755
*2888 FILLER_0_118_757
*2889 FILLER_0_118_769
*2890 FILLER_0_118_77
*2891 FILLER_0_118_781
*2892 FILLER_0_118_793
*2893 FILLER_0_118_805
*2894 FILLER_0_118_811
*2895 FILLER_0_118_813
*2896 FILLER_0_118_825
*2897 FILLER_0_118_83
*2898 FILLER_0_118_837
*2899 FILLER_0_118_849
*2900 FILLER_0_118_85
*2901 FILLER_0_118_861
*2902 FILLER_0_118_867
*2903 FILLER_0_118_869
*2904 FILLER_0_118_881
*2905 FILLER_0_118_893
*2906 FILLER_0_118_905
*2907 FILLER_0_118_917
*2908 FILLER_0_118_923
*2909 FILLER_0_118_925
*2910 FILLER_0_118_937
*2911 FILLER_0_118_949
*2912 FILLER_0_118_961
*2913 FILLER_0_118_97
*2914 FILLER_0_118_973
*2915 FILLER_0_118_979
*2916 FILLER_0_118_981
*2917 FILLER_0_118_993
*2918 FILLER_0_119_1001
*2919 FILLER_0_119_1007
*2920 FILLER_0_119_1009
*2921 FILLER_0_119_1021
*2922 FILLER_0_119_1033
*2923 FILLER_0_119_1045
*2924 FILLER_0_119_105
*2925 FILLER_0_119_1057
*2926 FILLER_0_119_111
*2927 FILLER_0_119_113
*2928 FILLER_0_119_125
*2929 FILLER_0_119_137
*2930 FILLER_0_119_149
*2931 FILLER_0_119_15
*2932 FILLER_0_119_161
*2933 FILLER_0_119_167
*2934 FILLER_0_119_169
*2935 FILLER_0_119_181
*2936 FILLER_0_119_193
*2937 FILLER_0_119_205
*2938 FILLER_0_119_217
*2939 FILLER_0_119_223
*2940 FILLER_0_119_225
*2941 FILLER_0_119_237
*2942 FILLER_0_119_249
*2943 FILLER_0_119_261
*2944 FILLER_0_119_27
*2945 FILLER_0_119_273
*2946 FILLER_0_119_279
*2947 FILLER_0_119_281
*2948 FILLER_0_119_293
*2949 FILLER_0_119_3
*2950 FILLER_0_119_305
*2951 FILLER_0_119_317
*2952 FILLER_0_119_329
*2953 FILLER_0_119_335
*2954 FILLER_0_119_337
*2955 FILLER_0_119_349
*2956 FILLER_0_119_361
*2957 FILLER_0_119_373
*2958 FILLER_0_119_385
*2959 FILLER_0_119_39
*2960 FILLER_0_119_391
*2961 FILLER_0_119_393
*2962 FILLER_0_119_405
*2963 FILLER_0_119_417
*2964 FILLER_0_119_429
*2965 FILLER_0_119_441
*2966 FILLER_0_119_447
*2967 FILLER_0_119_449
*2968 FILLER_0_119_461
*2969 FILLER_0_119_473
*2970 FILLER_0_119_485
*2971 FILLER_0_119_497
*2972 FILLER_0_119_503
*2973 FILLER_0_119_505
*2974 FILLER_0_119_51
*2975 FILLER_0_119_517
*2976 FILLER_0_119_529
*2977 FILLER_0_119_541
*2978 FILLER_0_119_55
*2979 FILLER_0_119_553
*2980 FILLER_0_119_559
*2981 FILLER_0_119_561
*2982 FILLER_0_119_57
*2983 FILLER_0_119_573
*2984 FILLER_0_119_585
*2985 FILLER_0_119_597
*2986 FILLER_0_119_609
*2987 FILLER_0_119_615
*2988 FILLER_0_119_617
*2989 FILLER_0_119_629
*2990 FILLER_0_119_641
*2991 FILLER_0_119_653
*2992 FILLER_0_119_665
*2993 FILLER_0_119_671
*2994 FILLER_0_119_673
*2995 FILLER_0_119_685
*2996 FILLER_0_119_69
*2997 FILLER_0_119_697
*2998 FILLER_0_119_709
*2999 FILLER_0_119_721
*3000 FILLER_0_119_727
*3001 FILLER_0_119_729
*3002 FILLER_0_119_741
*3003 FILLER_0_119_753
*3004 FILLER_0_119_765
*3005 FILLER_0_119_777
*3006 FILLER_0_119_783
*3007 FILLER_0_119_785
*3008 FILLER_0_119_797
*3009 FILLER_0_119_809
*3010 FILLER_0_119_81
*3011 FILLER_0_119_821
*3012 FILLER_0_119_833
*3013 FILLER_0_119_839
*3014 FILLER_0_119_841
*3015 FILLER_0_119_853
*3016 FILLER_0_119_865
*3017 FILLER_0_119_877
*3018 FILLER_0_119_889
*3019 FILLER_0_119_895
*3020 FILLER_0_119_897
*3021 FILLER_0_119_909
*3022 FILLER_0_119_921
*3023 FILLER_0_119_93
*3024 FILLER_0_119_933
*3025 FILLER_0_119_945
*3026 FILLER_0_119_951
*3027 FILLER_0_119_953
*3028 FILLER_0_119_965
*3029 FILLER_0_119_977
*3030 FILLER_0_119_989
*3031 FILLER_0_11_1001
*3032 FILLER_0_11_1007
*3033 FILLER_0_11_1009
*3034 FILLER_0_11_1021
*3035 FILLER_0_11_1033
*3036 FILLER_0_11_1045
*3037 FILLER_0_11_105
*3038 FILLER_0_11_1057
*3039 FILLER_0_11_111
*3040 FILLER_0_11_113
*3041 FILLER_0_11_125
*3042 FILLER_0_11_137
*3043 FILLER_0_11_149
*3044 FILLER_0_11_15
*3045 FILLER_0_11_161
*3046 FILLER_0_11_167
*3047 FILLER_0_11_169
*3048 FILLER_0_11_181
*3049 FILLER_0_11_193
*3050 FILLER_0_11_205
*3051 FILLER_0_11_217
*3052 FILLER_0_11_223
*3053 FILLER_0_11_225
*3054 FILLER_0_11_237
*3055 FILLER_0_11_249
*3056 FILLER_0_11_261
*3057 FILLER_0_11_27
*3058 FILLER_0_11_273
*3059 FILLER_0_11_279
*3060 FILLER_0_11_281
*3061 FILLER_0_11_293
*3062 FILLER_0_11_3
*3063 FILLER_0_11_305
*3064 FILLER_0_11_317
*3065 FILLER_0_11_329
*3066 FILLER_0_11_335
*3067 FILLER_0_11_337
*3068 FILLER_0_11_349
*3069 FILLER_0_11_361
*3070 FILLER_0_11_373
*3071 FILLER_0_11_385
*3072 FILLER_0_11_39
*3073 FILLER_0_11_391
*3074 FILLER_0_11_393
*3075 FILLER_0_11_405
*3076 FILLER_0_11_417
*3077 FILLER_0_11_429
*3078 FILLER_0_11_441
*3079 FILLER_0_11_447
*3080 FILLER_0_11_449
*3081 FILLER_0_11_461
*3082 FILLER_0_11_473
*3083 FILLER_0_11_485
*3084 FILLER_0_11_497
*3085 FILLER_0_11_503
*3086 FILLER_0_11_505
*3087 FILLER_0_11_51
*3088 FILLER_0_11_517
*3089 FILLER_0_11_529
*3090 FILLER_0_11_541
*3091 FILLER_0_11_55
*3092 FILLER_0_11_553
*3093 FILLER_0_11_559
*3094 FILLER_0_11_561
*3095 FILLER_0_11_57
*3096 FILLER_0_11_573
*3097 FILLER_0_11_585
*3098 FILLER_0_11_597
*3099 FILLER_0_11_609
*3100 FILLER_0_11_615
*3101 FILLER_0_11_617
*3102 FILLER_0_11_629
*3103 FILLER_0_11_641
*3104 FILLER_0_11_653
*3105 FILLER_0_11_665
*3106 FILLER_0_11_671
*3107 FILLER_0_11_673
*3108 FILLER_0_11_685
*3109 FILLER_0_11_69
*3110 FILLER_0_11_697
*3111 FILLER_0_11_709
*3112 FILLER_0_11_721
*3113 FILLER_0_11_727
*3114 FILLER_0_11_729
*3115 FILLER_0_11_741
*3116 FILLER_0_11_753
*3117 FILLER_0_11_765
*3118 FILLER_0_11_777
*3119 FILLER_0_11_783
*3120 FILLER_0_11_785
*3121 FILLER_0_11_797
*3122 FILLER_0_11_809
*3123 FILLER_0_11_81
*3124 FILLER_0_11_821
*3125 FILLER_0_11_833
*3126 FILLER_0_11_839
*3127 FILLER_0_11_841
*3128 FILLER_0_11_853
*3129 FILLER_0_11_865
*3130 FILLER_0_11_877
*3131 FILLER_0_11_889
*3132 FILLER_0_11_895
*3133 FILLER_0_11_897
*3134 FILLER_0_11_909
*3135 FILLER_0_11_921
*3136 FILLER_0_11_93
*3137 FILLER_0_11_933
*3138 FILLER_0_11_945
*3139 FILLER_0_11_951
*3140 FILLER_0_11_953
*3141 FILLER_0_11_965
*3142 FILLER_0_11_977
*3143 FILLER_0_11_989
*3144 FILLER_0_120_1005
*3145 FILLER_0_120_1017
*3146 FILLER_0_120_1029
*3147 FILLER_0_120_1035
*3148 FILLER_0_120_1037
*3149 FILLER_0_120_1049
*3150 FILLER_0_120_1057
*3151 FILLER_0_120_109
*3152 FILLER_0_120_121
*3153 FILLER_0_120_133
*3154 FILLER_0_120_139
*3155 FILLER_0_120_141
*3156 FILLER_0_120_15
*3157 FILLER_0_120_153
*3158 FILLER_0_120_165
*3159 FILLER_0_120_177
*3160 FILLER_0_120_189
*3161 FILLER_0_120_195
*3162 FILLER_0_120_197
*3163 FILLER_0_120_209
*3164 FILLER_0_120_221
*3165 FILLER_0_120_233
*3166 FILLER_0_120_245
*3167 FILLER_0_120_251
*3168 FILLER_0_120_253
*3169 FILLER_0_120_265
*3170 FILLER_0_120_27
*3171 FILLER_0_120_277
*3172 FILLER_0_120_289
*3173 FILLER_0_120_29
*3174 FILLER_0_120_3
*3175 FILLER_0_120_301
*3176 FILLER_0_120_307
*3177 FILLER_0_120_309
*3178 FILLER_0_120_321
*3179 FILLER_0_120_333
*3180 FILLER_0_120_345
*3181 FILLER_0_120_357
*3182 FILLER_0_120_363
*3183 FILLER_0_120_365
*3184 FILLER_0_120_377
*3185 FILLER_0_120_389
*3186 FILLER_0_120_401
*3187 FILLER_0_120_41
*3188 FILLER_0_120_413
*3189 FILLER_0_120_419
*3190 FILLER_0_120_421
*3191 FILLER_0_120_433
*3192 FILLER_0_120_445
*3193 FILLER_0_120_457
*3194 FILLER_0_120_469
*3195 FILLER_0_120_475
*3196 FILLER_0_120_477
*3197 FILLER_0_120_489
*3198 FILLER_0_120_501
*3199 FILLER_0_120_513
*3200 FILLER_0_120_525
*3201 FILLER_0_120_53
*3202 FILLER_0_120_531
*3203 FILLER_0_120_533
*3204 FILLER_0_120_545
*3205 FILLER_0_120_557
*3206 FILLER_0_120_569
*3207 FILLER_0_120_581
*3208 FILLER_0_120_587
*3209 FILLER_0_120_589
*3210 FILLER_0_120_601
*3211 FILLER_0_120_613
*3212 FILLER_0_120_625
*3213 FILLER_0_120_637
*3214 FILLER_0_120_643
*3215 FILLER_0_120_645
*3216 FILLER_0_120_65
*3217 FILLER_0_120_657
*3218 FILLER_0_120_669
*3219 FILLER_0_120_681
*3220 FILLER_0_120_693
*3221 FILLER_0_120_699
*3222 FILLER_0_120_701
*3223 FILLER_0_120_713
*3224 FILLER_0_120_725
*3225 FILLER_0_120_737
*3226 FILLER_0_120_749
*3227 FILLER_0_120_755
*3228 FILLER_0_120_757
*3229 FILLER_0_120_769
*3230 FILLER_0_120_77
*3231 FILLER_0_120_781
*3232 FILLER_0_120_793
*3233 FILLER_0_120_805
*3234 FILLER_0_120_811
*3235 FILLER_0_120_813
*3236 FILLER_0_120_825
*3237 FILLER_0_120_83
*3238 FILLER_0_120_837
*3239 FILLER_0_120_849
*3240 FILLER_0_120_85
*3241 FILLER_0_120_861
*3242 FILLER_0_120_867
*3243 FILLER_0_120_869
*3244 FILLER_0_120_881
*3245 FILLER_0_120_893
*3246 FILLER_0_120_905
*3247 FILLER_0_120_917
*3248 FILLER_0_120_923
*3249 FILLER_0_120_925
*3250 FILLER_0_120_937
*3251 FILLER_0_120_949
*3252 FILLER_0_120_961
*3253 FILLER_0_120_97
*3254 FILLER_0_120_973
*3255 FILLER_0_120_979
*3256 FILLER_0_120_981
*3257 FILLER_0_120_993
*3258 FILLER_0_121_1001
*3259 FILLER_0_121_1007
*3260 FILLER_0_121_1009
*3261 FILLER_0_121_1021
*3262 FILLER_0_121_1033
*3263 FILLER_0_121_1045
*3264 FILLER_0_121_105
*3265 FILLER_0_121_1057
*3266 FILLER_0_121_111
*3267 FILLER_0_121_113
*3268 FILLER_0_121_125
*3269 FILLER_0_121_137
*3270 FILLER_0_121_149
*3271 FILLER_0_121_15
*3272 FILLER_0_121_161
*3273 FILLER_0_121_167
*3274 FILLER_0_121_169
*3275 FILLER_0_121_181
*3276 FILLER_0_121_193
*3277 FILLER_0_121_205
*3278 FILLER_0_121_217
*3279 FILLER_0_121_223
*3280 FILLER_0_121_225
*3281 FILLER_0_121_237
*3282 FILLER_0_121_249
*3283 FILLER_0_121_261
*3284 FILLER_0_121_27
*3285 FILLER_0_121_273
*3286 FILLER_0_121_279
*3287 FILLER_0_121_281
*3288 FILLER_0_121_293
*3289 FILLER_0_121_3
*3290 FILLER_0_121_305
*3291 FILLER_0_121_317
*3292 FILLER_0_121_329
*3293 FILLER_0_121_335
*3294 FILLER_0_121_337
*3295 FILLER_0_121_349
*3296 FILLER_0_121_361
*3297 FILLER_0_121_373
*3298 FILLER_0_121_385
*3299 FILLER_0_121_39
*3300 FILLER_0_121_391
*3301 FILLER_0_121_393
*3302 FILLER_0_121_405
*3303 FILLER_0_121_417
*3304 FILLER_0_121_429
*3305 FILLER_0_121_441
*3306 FILLER_0_121_447
*3307 FILLER_0_121_449
*3308 FILLER_0_121_461
*3309 FILLER_0_121_473
*3310 FILLER_0_121_485
*3311 FILLER_0_121_497
*3312 FILLER_0_121_503
*3313 FILLER_0_121_505
*3314 FILLER_0_121_51
*3315 FILLER_0_121_517
*3316 FILLER_0_121_529
*3317 FILLER_0_121_541
*3318 FILLER_0_121_55
*3319 FILLER_0_121_553
*3320 FILLER_0_121_559
*3321 FILLER_0_121_561
*3322 FILLER_0_121_57
*3323 FILLER_0_121_573
*3324 FILLER_0_121_585
*3325 FILLER_0_121_597
*3326 FILLER_0_121_609
*3327 FILLER_0_121_615
*3328 FILLER_0_121_617
*3329 FILLER_0_121_629
*3330 FILLER_0_121_641
*3331 FILLER_0_121_653
*3332 FILLER_0_121_665
*3333 FILLER_0_121_671
*3334 FILLER_0_121_673
*3335 FILLER_0_121_685
*3336 FILLER_0_121_69
*3337 FILLER_0_121_697
*3338 FILLER_0_121_709
*3339 FILLER_0_121_721
*3340 FILLER_0_121_727
*3341 FILLER_0_121_729
*3342 FILLER_0_121_741
*3343 FILLER_0_121_753
*3344 FILLER_0_121_765
*3345 FILLER_0_121_777
*3346 FILLER_0_121_783
*3347 FILLER_0_121_785
*3348 FILLER_0_121_797
*3349 FILLER_0_121_809
*3350 FILLER_0_121_81
*3351 FILLER_0_121_821
*3352 FILLER_0_121_833
*3353 FILLER_0_121_839
*3354 FILLER_0_121_841
*3355 FILLER_0_121_853
*3356 FILLER_0_121_865
*3357 FILLER_0_121_877
*3358 FILLER_0_121_889
*3359 FILLER_0_121_895
*3360 FILLER_0_121_897
*3361 FILLER_0_121_909
*3362 FILLER_0_121_921
*3363 FILLER_0_121_93
*3364 FILLER_0_121_933
*3365 FILLER_0_121_945
*3366 FILLER_0_121_951
*3367 FILLER_0_121_953
*3368 FILLER_0_121_965
*3369 FILLER_0_121_977
*3370 FILLER_0_121_989
*3371 FILLER_0_122_1005
*3372 FILLER_0_122_1017
*3373 FILLER_0_122_1029
*3374 FILLER_0_122_1035
*3375 FILLER_0_122_1037
*3376 FILLER_0_122_1049
*3377 FILLER_0_122_1057
*3378 FILLER_0_122_109
*3379 FILLER_0_122_121
*3380 FILLER_0_122_133
*3381 FILLER_0_122_139
*3382 FILLER_0_122_141
*3383 FILLER_0_122_15
*3384 FILLER_0_122_153
*3385 FILLER_0_122_165
*3386 FILLER_0_122_177
*3387 FILLER_0_122_189
*3388 FILLER_0_122_195
*3389 FILLER_0_122_197
*3390 FILLER_0_122_209
*3391 FILLER_0_122_221
*3392 FILLER_0_122_233
*3393 FILLER_0_122_245
*3394 FILLER_0_122_251
*3395 FILLER_0_122_253
*3396 FILLER_0_122_265
*3397 FILLER_0_122_27
*3398 FILLER_0_122_277
*3399 FILLER_0_122_289
*3400 FILLER_0_122_29
*3401 FILLER_0_122_3
*3402 FILLER_0_122_301
*3403 FILLER_0_122_307
*3404 FILLER_0_122_309
*3405 FILLER_0_122_321
*3406 FILLER_0_122_333
*3407 FILLER_0_122_345
*3408 FILLER_0_122_357
*3409 FILLER_0_122_363
*3410 FILLER_0_122_365
*3411 FILLER_0_122_377
*3412 FILLER_0_122_389
*3413 FILLER_0_122_401
*3414 FILLER_0_122_41
*3415 FILLER_0_122_413
*3416 FILLER_0_122_419
*3417 FILLER_0_122_421
*3418 FILLER_0_122_433
*3419 FILLER_0_122_445
*3420 FILLER_0_122_457
*3421 FILLER_0_122_469
*3422 FILLER_0_122_475
*3423 FILLER_0_122_477
*3424 FILLER_0_122_489
*3425 FILLER_0_122_501
*3426 FILLER_0_122_513
*3427 FILLER_0_122_525
*3428 FILLER_0_122_53
*3429 FILLER_0_122_531
*3430 FILLER_0_122_533
*3431 FILLER_0_122_545
*3432 FILLER_0_122_557
*3433 FILLER_0_122_569
*3434 FILLER_0_122_581
*3435 FILLER_0_122_587
*3436 FILLER_0_122_589
*3437 FILLER_0_122_601
*3438 FILLER_0_122_613
*3439 FILLER_0_122_625
*3440 FILLER_0_122_637
*3441 FILLER_0_122_643
*3442 FILLER_0_122_645
*3443 FILLER_0_122_65
*3444 FILLER_0_122_657
*3445 FILLER_0_122_669
*3446 FILLER_0_122_681
*3447 FILLER_0_122_693
*3448 FILLER_0_122_699
*3449 FILLER_0_122_701
*3450 FILLER_0_122_713
*3451 FILLER_0_122_725
*3452 FILLER_0_122_737
*3453 FILLER_0_122_749
*3454 FILLER_0_122_755
*3455 FILLER_0_122_757
*3456 FILLER_0_122_769
*3457 FILLER_0_122_77
*3458 FILLER_0_122_781
*3459 FILLER_0_122_793
*3460 FILLER_0_122_805
*3461 FILLER_0_122_811
*3462 FILLER_0_122_813
*3463 FILLER_0_122_825
*3464 FILLER_0_122_83
*3465 FILLER_0_122_837
*3466 FILLER_0_122_849
*3467 FILLER_0_122_85
*3468 FILLER_0_122_861
*3469 FILLER_0_122_867
*3470 FILLER_0_122_869
*3471 FILLER_0_122_881
*3472 FILLER_0_122_893
*3473 FILLER_0_122_905
*3474 FILLER_0_122_917
*3475 FILLER_0_122_923
*3476 FILLER_0_122_925
*3477 FILLER_0_122_937
*3478 FILLER_0_122_949
*3479 FILLER_0_122_961
*3480 FILLER_0_122_97
*3481 FILLER_0_122_973
*3482 FILLER_0_122_979
*3483 FILLER_0_122_981
*3484 FILLER_0_122_993
*3485 FILLER_0_123_1001
*3486 FILLER_0_123_1007
*3487 FILLER_0_123_1009
*3488 FILLER_0_123_1021
*3489 FILLER_0_123_1033
*3490 FILLER_0_123_1045
*3491 FILLER_0_123_105
*3492 FILLER_0_123_1057
*3493 FILLER_0_123_111
*3494 FILLER_0_123_113
*3495 FILLER_0_123_125
*3496 FILLER_0_123_137
*3497 FILLER_0_123_149
*3498 FILLER_0_123_161
*3499 FILLER_0_123_167
*3500 FILLER_0_123_169
*3501 FILLER_0_123_181
*3502 FILLER_0_123_19
*3503 FILLER_0_123_193
*3504 FILLER_0_123_205
*3505 FILLER_0_123_217
*3506 FILLER_0_123_223
*3507 FILLER_0_123_225
*3508 FILLER_0_123_237
*3509 FILLER_0_123_249
*3510 FILLER_0_123_261
*3511 FILLER_0_123_273
*3512 FILLER_0_123_279
*3513 FILLER_0_123_281
*3514 FILLER_0_123_293
*3515 FILLER_0_123_305
*3516 FILLER_0_123_31
*3517 FILLER_0_123_317
*3518 FILLER_0_123_329
*3519 FILLER_0_123_335
*3520 FILLER_0_123_337
*3521 FILLER_0_123_349
*3522 FILLER_0_123_361
*3523 FILLER_0_123_373
*3524 FILLER_0_123_385
*3525 FILLER_0_123_391
*3526 FILLER_0_123_393
*3527 FILLER_0_123_405
*3528 FILLER_0_123_417
*3529 FILLER_0_123_429
*3530 FILLER_0_123_43
*3531 FILLER_0_123_441
*3532 FILLER_0_123_447
*3533 FILLER_0_123_449
*3534 FILLER_0_123_461
*3535 FILLER_0_123_473
*3536 FILLER_0_123_485
*3537 FILLER_0_123_497
*3538 FILLER_0_123_503
*3539 FILLER_0_123_505
*3540 FILLER_0_123_517
*3541 FILLER_0_123_529
*3542 FILLER_0_123_541
*3543 FILLER_0_123_55
*3544 FILLER_0_123_553
*3545 FILLER_0_123_559
*3546 FILLER_0_123_561
*3547 FILLER_0_123_57
*3548 FILLER_0_123_573
*3549 FILLER_0_123_585
*3550 FILLER_0_123_597
*3551 FILLER_0_123_609
*3552 FILLER_0_123_615
*3553 FILLER_0_123_617
*3554 FILLER_0_123_629
*3555 FILLER_0_123_641
*3556 FILLER_0_123_653
*3557 FILLER_0_123_665
*3558 FILLER_0_123_671
*3559 FILLER_0_123_673
*3560 FILLER_0_123_685
*3561 FILLER_0_123_69
*3562 FILLER_0_123_697
*3563 FILLER_0_123_7
*3564 FILLER_0_123_709
*3565 FILLER_0_123_721
*3566 FILLER_0_123_727
*3567 FILLER_0_123_729
*3568 FILLER_0_123_741
*3569 FILLER_0_123_753
*3570 FILLER_0_123_765
*3571 FILLER_0_123_777
*3572 FILLER_0_123_783
*3573 FILLER_0_123_785
*3574 FILLER_0_123_797
*3575 FILLER_0_123_809
*3576 FILLER_0_123_81
*3577 FILLER_0_123_821
*3578 FILLER_0_123_833
*3579 FILLER_0_123_839
*3580 FILLER_0_123_841
*3581 FILLER_0_123_853
*3582 FILLER_0_123_865
*3583 FILLER_0_123_877
*3584 FILLER_0_123_889
*3585 FILLER_0_123_895
*3586 FILLER_0_123_897
*3587 FILLER_0_123_909
*3588 FILLER_0_123_921
*3589 FILLER_0_123_93
*3590 FILLER_0_123_933
*3591 FILLER_0_123_945
*3592 FILLER_0_123_951
*3593 FILLER_0_123_953
*3594 FILLER_0_123_965
*3595 FILLER_0_123_977
*3596 FILLER_0_123_989
*3597 FILLER_0_124_1005
*3598 FILLER_0_124_1017
*3599 FILLER_0_124_1029
*3600 FILLER_0_124_1035
*3601 FILLER_0_124_1037
*3602 FILLER_0_124_1049
*3603 FILLER_0_124_1057
*3604 FILLER_0_124_109
*3605 FILLER_0_124_121
*3606 FILLER_0_124_133
*3607 FILLER_0_124_139
*3608 FILLER_0_124_141
*3609 FILLER_0_124_15
*3610 FILLER_0_124_153
*3611 FILLER_0_124_165
*3612 FILLER_0_124_177
*3613 FILLER_0_124_189
*3614 FILLER_0_124_195
*3615 FILLER_0_124_197
*3616 FILLER_0_124_209
*3617 FILLER_0_124_221
*3618 FILLER_0_124_233
*3619 FILLER_0_124_245
*3620 FILLER_0_124_251
*3621 FILLER_0_124_253
*3622 FILLER_0_124_265
*3623 FILLER_0_124_27
*3624 FILLER_0_124_277
*3625 FILLER_0_124_289
*3626 FILLER_0_124_29
*3627 FILLER_0_124_3
*3628 FILLER_0_124_301
*3629 FILLER_0_124_307
*3630 FILLER_0_124_309
*3631 FILLER_0_124_321
*3632 FILLER_0_124_333
*3633 FILLER_0_124_345
*3634 FILLER_0_124_357
*3635 FILLER_0_124_363
*3636 FILLER_0_124_365
*3637 FILLER_0_124_377
*3638 FILLER_0_124_389
*3639 FILLER_0_124_401
*3640 FILLER_0_124_41
*3641 FILLER_0_124_413
*3642 FILLER_0_124_419
*3643 FILLER_0_124_421
*3644 FILLER_0_124_433
*3645 FILLER_0_124_445
*3646 FILLER_0_124_457
*3647 FILLER_0_124_469
*3648 FILLER_0_124_475
*3649 FILLER_0_124_477
*3650 FILLER_0_124_489
*3651 FILLER_0_124_501
*3652 FILLER_0_124_513
*3653 FILLER_0_124_525
*3654 FILLER_0_124_53
*3655 FILLER_0_124_531
*3656 FILLER_0_124_533
*3657 FILLER_0_124_545
*3658 FILLER_0_124_557
*3659 FILLER_0_124_569
*3660 FILLER_0_124_581
*3661 FILLER_0_124_587
*3662 FILLER_0_124_589
*3663 FILLER_0_124_601
*3664 FILLER_0_124_613
*3665 FILLER_0_124_625
*3666 FILLER_0_124_637
*3667 FILLER_0_124_643
*3668 FILLER_0_124_645
*3669 FILLER_0_124_65
*3670 FILLER_0_124_657
*3671 FILLER_0_124_669
*3672 FILLER_0_124_681
*3673 FILLER_0_124_693
*3674 FILLER_0_124_699
*3675 FILLER_0_124_701
*3676 FILLER_0_124_713
*3677 FILLER_0_124_725
*3678 FILLER_0_124_737
*3679 FILLER_0_124_749
*3680 FILLER_0_124_755
*3681 FILLER_0_124_757
*3682 FILLER_0_124_769
*3683 FILLER_0_124_77
*3684 FILLER_0_124_781
*3685 FILLER_0_124_793
*3686 FILLER_0_124_805
*3687 FILLER_0_124_811
*3688 FILLER_0_124_813
*3689 FILLER_0_124_825
*3690 FILLER_0_124_83
*3691 FILLER_0_124_837
*3692 FILLER_0_124_849
*3693 FILLER_0_124_85
*3694 FILLER_0_124_861
*3695 FILLER_0_124_867
*3696 FILLER_0_124_869
*3697 FILLER_0_124_881
*3698 FILLER_0_124_893
*3699 FILLER_0_124_905
*3700 FILLER_0_124_917
*3701 FILLER_0_124_923
*3702 FILLER_0_124_925
*3703 FILLER_0_124_937
*3704 FILLER_0_124_949
*3705 FILLER_0_124_961
*3706 FILLER_0_124_97
*3707 FILLER_0_124_973
*3708 FILLER_0_124_979
*3709 FILLER_0_124_981
*3710 FILLER_0_124_993
*3711 FILLER_0_125_1001
*3712 FILLER_0_125_1007
*3713 FILLER_0_125_1009
*3714 FILLER_0_125_1021
*3715 FILLER_0_125_1033
*3716 FILLER_0_125_1045
*3717 FILLER_0_125_105
*3718 FILLER_0_125_1057
*3719 FILLER_0_125_111
*3720 FILLER_0_125_113
*3721 FILLER_0_125_125
*3722 FILLER_0_125_137
*3723 FILLER_0_125_149
*3724 FILLER_0_125_15
*3725 FILLER_0_125_161
*3726 FILLER_0_125_167
*3727 FILLER_0_125_169
*3728 FILLER_0_125_181
*3729 FILLER_0_125_193
*3730 FILLER_0_125_205
*3731 FILLER_0_125_217
*3732 FILLER_0_125_223
*3733 FILLER_0_125_225
*3734 FILLER_0_125_237
*3735 FILLER_0_125_249
*3736 FILLER_0_125_261
*3737 FILLER_0_125_27
*3738 FILLER_0_125_273
*3739 FILLER_0_125_279
*3740 FILLER_0_125_281
*3741 FILLER_0_125_293
*3742 FILLER_0_125_3
*3743 FILLER_0_125_305
*3744 FILLER_0_125_317
*3745 FILLER_0_125_329
*3746 FILLER_0_125_335
*3747 FILLER_0_125_337
*3748 FILLER_0_125_349
*3749 FILLER_0_125_361
*3750 FILLER_0_125_373
*3751 FILLER_0_125_385
*3752 FILLER_0_125_39
*3753 FILLER_0_125_391
*3754 FILLER_0_125_393
*3755 FILLER_0_125_405
*3756 FILLER_0_125_417
*3757 FILLER_0_125_429
*3758 FILLER_0_125_441
*3759 FILLER_0_125_447
*3760 FILLER_0_125_449
*3761 FILLER_0_125_461
*3762 FILLER_0_125_473
*3763 FILLER_0_125_485
*3764 FILLER_0_125_497
*3765 FILLER_0_125_503
*3766 FILLER_0_125_505
*3767 FILLER_0_125_51
*3768 FILLER_0_125_517
*3769 FILLER_0_125_529
*3770 FILLER_0_125_541
*3771 FILLER_0_125_55
*3772 FILLER_0_125_553
*3773 FILLER_0_125_559
*3774 FILLER_0_125_561
*3775 FILLER_0_125_57
*3776 FILLER_0_125_573
*3777 FILLER_0_125_585
*3778 FILLER_0_125_597
*3779 FILLER_0_125_609
*3780 FILLER_0_125_615
*3781 FILLER_0_125_617
*3782 FILLER_0_125_629
*3783 FILLER_0_125_641
*3784 FILLER_0_125_653
*3785 FILLER_0_125_665
*3786 FILLER_0_125_671
*3787 FILLER_0_125_673
*3788 FILLER_0_125_685
*3789 FILLER_0_125_69
*3790 FILLER_0_125_697
*3791 FILLER_0_125_709
*3792 FILLER_0_125_721
*3793 FILLER_0_125_727
*3794 FILLER_0_125_729
*3795 FILLER_0_125_741
*3796 FILLER_0_125_753
*3797 FILLER_0_125_765
*3798 FILLER_0_125_777
*3799 FILLER_0_125_783
*3800 FILLER_0_125_785
*3801 FILLER_0_125_797
*3802 FILLER_0_125_809
*3803 FILLER_0_125_81
*3804 FILLER_0_125_821
*3805 FILLER_0_125_833
*3806 FILLER_0_125_839
*3807 FILLER_0_125_841
*3808 FILLER_0_125_853
*3809 FILLER_0_125_865
*3810 FILLER_0_125_877
*3811 FILLER_0_125_889
*3812 FILLER_0_125_895
*3813 FILLER_0_125_897
*3814 FILLER_0_125_909
*3815 FILLER_0_125_921
*3816 FILLER_0_125_93
*3817 FILLER_0_125_933
*3818 FILLER_0_125_945
*3819 FILLER_0_125_951
*3820 FILLER_0_125_953
*3821 FILLER_0_125_965
*3822 FILLER_0_125_977
*3823 FILLER_0_125_989
*3824 FILLER_0_126_1005
*3825 FILLER_0_126_1017
*3826 FILLER_0_126_1029
*3827 FILLER_0_126_1035
*3828 FILLER_0_126_1037
*3829 FILLER_0_126_1049
*3830 FILLER_0_126_1057
*3831 FILLER_0_126_109
*3832 FILLER_0_126_121
*3833 FILLER_0_126_133
*3834 FILLER_0_126_139
*3835 FILLER_0_126_141
*3836 FILLER_0_126_15
*3837 FILLER_0_126_153
*3838 FILLER_0_126_165
*3839 FILLER_0_126_177
*3840 FILLER_0_126_189
*3841 FILLER_0_126_195
*3842 FILLER_0_126_197
*3843 FILLER_0_126_209
*3844 FILLER_0_126_221
*3845 FILLER_0_126_233
*3846 FILLER_0_126_245
*3847 FILLER_0_126_251
*3848 FILLER_0_126_253
*3849 FILLER_0_126_265
*3850 FILLER_0_126_27
*3851 FILLER_0_126_277
*3852 FILLER_0_126_289
*3853 FILLER_0_126_29
*3854 FILLER_0_126_3
*3855 FILLER_0_126_301
*3856 FILLER_0_126_307
*3857 FILLER_0_126_309
*3858 FILLER_0_126_321
*3859 FILLER_0_126_333
*3860 FILLER_0_126_345
*3861 FILLER_0_126_357
*3862 FILLER_0_126_363
*3863 FILLER_0_126_365
*3864 FILLER_0_126_377
*3865 FILLER_0_126_389
*3866 FILLER_0_126_401
*3867 FILLER_0_126_41
*3868 FILLER_0_126_413
*3869 FILLER_0_126_419
*3870 FILLER_0_126_421
*3871 FILLER_0_126_433
*3872 FILLER_0_126_445
*3873 FILLER_0_126_457
*3874 FILLER_0_126_469
*3875 FILLER_0_126_475
*3876 FILLER_0_126_477
*3877 FILLER_0_126_489
*3878 FILLER_0_126_501
*3879 FILLER_0_126_513
*3880 FILLER_0_126_525
*3881 FILLER_0_126_53
*3882 FILLER_0_126_531
*3883 FILLER_0_126_533
*3884 FILLER_0_126_545
*3885 FILLER_0_126_557
*3886 FILLER_0_126_569
*3887 FILLER_0_126_581
*3888 FILLER_0_126_587
*3889 FILLER_0_126_589
*3890 FILLER_0_126_601
*3891 FILLER_0_126_613
*3892 FILLER_0_126_625
*3893 FILLER_0_126_637
*3894 FILLER_0_126_643
*3895 FILLER_0_126_645
*3896 FILLER_0_126_65
*3897 FILLER_0_126_657
*3898 FILLER_0_126_669
*3899 FILLER_0_126_681
*3900 FILLER_0_126_693
*3901 FILLER_0_126_699
*3902 FILLER_0_126_701
*3903 FILLER_0_126_713
*3904 FILLER_0_126_725
*3905 FILLER_0_126_737
*3906 FILLER_0_126_749
*3907 FILLER_0_126_755
*3908 FILLER_0_126_757
*3909 FILLER_0_126_769
*3910 FILLER_0_126_77
*3911 FILLER_0_126_781
*3912 FILLER_0_126_793
*3913 FILLER_0_126_805
*3914 FILLER_0_126_811
*3915 FILLER_0_126_813
*3916 FILLER_0_126_825
*3917 FILLER_0_126_83
*3918 FILLER_0_126_837
*3919 FILLER_0_126_849
*3920 FILLER_0_126_85
*3921 FILLER_0_126_861
*3922 FILLER_0_126_867
*3923 FILLER_0_126_869
*3924 FILLER_0_126_881
*3925 FILLER_0_126_893
*3926 FILLER_0_126_905
*3927 FILLER_0_126_917
*3928 FILLER_0_126_923
*3929 FILLER_0_126_925
*3930 FILLER_0_126_937
*3931 FILLER_0_126_949
*3932 FILLER_0_126_961
*3933 FILLER_0_126_97
*3934 FILLER_0_126_973
*3935 FILLER_0_126_979
*3936 FILLER_0_126_981
*3937 FILLER_0_126_993
*3938 FILLER_0_127_1001
*3939 FILLER_0_127_1007
*3940 FILLER_0_127_1009
*3941 FILLER_0_127_1021
*3942 FILLER_0_127_1033
*3943 FILLER_0_127_1045
*3944 FILLER_0_127_105
*3945 FILLER_0_127_1057
*3946 FILLER_0_127_111
*3947 FILLER_0_127_113
*3948 FILLER_0_127_125
*3949 FILLER_0_127_137
*3950 FILLER_0_127_149
*3951 FILLER_0_127_15
*3952 FILLER_0_127_161
*3953 FILLER_0_127_167
*3954 FILLER_0_127_169
*3955 FILLER_0_127_181
*3956 FILLER_0_127_193
*3957 FILLER_0_127_205
*3958 FILLER_0_127_217
*3959 FILLER_0_127_223
*3960 FILLER_0_127_225
*3961 FILLER_0_127_237
*3962 FILLER_0_127_249
*3963 FILLER_0_127_261
*3964 FILLER_0_127_27
*3965 FILLER_0_127_273
*3966 FILLER_0_127_279
*3967 FILLER_0_127_281
*3968 FILLER_0_127_293
*3969 FILLER_0_127_3
*3970 FILLER_0_127_305
*3971 FILLER_0_127_317
*3972 FILLER_0_127_329
*3973 FILLER_0_127_335
*3974 FILLER_0_127_337
*3975 FILLER_0_127_349
*3976 FILLER_0_127_361
*3977 FILLER_0_127_373
*3978 FILLER_0_127_385
*3979 FILLER_0_127_39
*3980 FILLER_0_127_391
*3981 FILLER_0_127_393
*3982 FILLER_0_127_405
*3983 FILLER_0_127_417
*3984 FILLER_0_127_429
*3985 FILLER_0_127_441
*3986 FILLER_0_127_447
*3987 FILLER_0_127_449
*3988 FILLER_0_127_461
*3989 FILLER_0_127_473
*3990 FILLER_0_127_485
*3991 FILLER_0_127_497
*3992 FILLER_0_127_503
*3993 FILLER_0_127_505
*3994 FILLER_0_127_51
*3995 FILLER_0_127_517
*3996 FILLER_0_127_529
*3997 FILLER_0_127_541
*3998 FILLER_0_127_55
*3999 FILLER_0_127_553
*4000 FILLER_0_127_559
*4001 FILLER_0_127_561
*4002 FILLER_0_127_57
*4003 FILLER_0_127_573
*4004 FILLER_0_127_585
*4005 FILLER_0_127_597
*4006 FILLER_0_127_609
*4007 FILLER_0_127_615
*4008 FILLER_0_127_617
*4009 FILLER_0_127_629
*4010 FILLER_0_127_641
*4011 FILLER_0_127_653
*4012 FILLER_0_127_665
*4013 FILLER_0_127_671
*4014 FILLER_0_127_673
*4015 FILLER_0_127_685
*4016 FILLER_0_127_69
*4017 FILLER_0_127_697
*4018 FILLER_0_127_709
*4019 FILLER_0_127_721
*4020 FILLER_0_127_727
*4021 FILLER_0_127_729
*4022 FILLER_0_127_741
*4023 FILLER_0_127_753
*4024 FILLER_0_127_765
*4025 FILLER_0_127_777
*4026 FILLER_0_127_783
*4027 FILLER_0_127_785
*4028 FILLER_0_127_797
*4029 FILLER_0_127_809
*4030 FILLER_0_127_81
*4031 FILLER_0_127_821
*4032 FILLER_0_127_833
*4033 FILLER_0_127_839
*4034 FILLER_0_127_841
*4035 FILLER_0_127_853
*4036 FILLER_0_127_865
*4037 FILLER_0_127_877
*4038 FILLER_0_127_889
*4039 FILLER_0_127_895
*4040 FILLER_0_127_897
*4041 FILLER_0_127_909
*4042 FILLER_0_127_921
*4043 FILLER_0_127_93
*4044 FILLER_0_127_933
*4045 FILLER_0_127_945
*4046 FILLER_0_127_951
*4047 FILLER_0_127_953
*4048 FILLER_0_127_965
*4049 FILLER_0_127_977
*4050 FILLER_0_127_989
*4051 FILLER_0_128_1005
*4052 FILLER_0_128_1017
*4053 FILLER_0_128_1029
*4054 FILLER_0_128_1035
*4055 FILLER_0_128_1037
*4056 FILLER_0_128_1049
*4057 FILLER_0_128_1057
*4058 FILLER_0_128_109
*4059 FILLER_0_128_121
*4060 FILLER_0_128_133
*4061 FILLER_0_128_139
*4062 FILLER_0_128_141
*4063 FILLER_0_128_153
*4064 FILLER_0_128_165
*4065 FILLER_0_128_177
*4066 FILLER_0_128_18
*4067 FILLER_0_128_189
*4068 FILLER_0_128_195
*4069 FILLER_0_128_197
*4070 FILLER_0_128_209
*4071 FILLER_0_128_221
*4072 FILLER_0_128_233
*4073 FILLER_0_128_245
*4074 FILLER_0_128_251
*4075 FILLER_0_128_253
*4076 FILLER_0_128_26
*4077 FILLER_0_128_265
*4078 FILLER_0_128_277
*4079 FILLER_0_128_289
*4080 FILLER_0_128_29
*4081 FILLER_0_128_301
*4082 FILLER_0_128_307
*4083 FILLER_0_128_309
*4084 FILLER_0_128_321
*4085 FILLER_0_128_333
*4086 FILLER_0_128_345
*4087 FILLER_0_128_357
*4088 FILLER_0_128_363
*4089 FILLER_0_128_365
*4090 FILLER_0_128_377
*4091 FILLER_0_128_389
*4092 FILLER_0_128_401
*4093 FILLER_0_128_41
*4094 FILLER_0_128_413
*4095 FILLER_0_128_419
*4096 FILLER_0_128_421
*4097 FILLER_0_128_433
*4098 FILLER_0_128_445
*4099 FILLER_0_128_457
*4100 FILLER_0_128_469
*4101 FILLER_0_128_475
*4102 FILLER_0_128_477
*4103 FILLER_0_128_489
*4104 FILLER_0_128_501
*4105 FILLER_0_128_513
*4106 FILLER_0_128_525
*4107 FILLER_0_128_53
*4108 FILLER_0_128_531
*4109 FILLER_0_128_533
*4110 FILLER_0_128_545
*4111 FILLER_0_128_557
*4112 FILLER_0_128_569
*4113 FILLER_0_128_581
*4114 FILLER_0_128_587
*4115 FILLER_0_128_589
*4116 FILLER_0_128_6
*4117 FILLER_0_128_601
*4118 FILLER_0_128_613
*4119 FILLER_0_128_625
*4120 FILLER_0_128_637
*4121 FILLER_0_128_643
*4122 FILLER_0_128_645
*4123 FILLER_0_128_65
*4124 FILLER_0_128_657
*4125 FILLER_0_128_669
*4126 FILLER_0_128_681
*4127 FILLER_0_128_693
*4128 FILLER_0_128_699
*4129 FILLER_0_128_701
*4130 FILLER_0_128_713
*4131 FILLER_0_128_725
*4132 FILLER_0_128_737
*4133 FILLER_0_128_749
*4134 FILLER_0_128_755
*4135 FILLER_0_128_757
*4136 FILLER_0_128_769
*4137 FILLER_0_128_77
*4138 FILLER_0_128_781
*4139 FILLER_0_128_793
*4140 FILLER_0_128_805
*4141 FILLER_0_128_811
*4142 FILLER_0_128_813
*4143 FILLER_0_128_825
*4144 FILLER_0_128_83
*4145 FILLER_0_128_837
*4146 FILLER_0_128_849
*4147 FILLER_0_128_85
*4148 FILLER_0_128_861
*4149 FILLER_0_128_867
*4150 FILLER_0_128_869
*4151 FILLER_0_128_881
*4152 FILLER_0_128_893
*4153 FILLER_0_128_905
*4154 FILLER_0_128_917
*4155 FILLER_0_128_923
*4156 FILLER_0_128_925
*4157 FILLER_0_128_937
*4158 FILLER_0_128_949
*4159 FILLER_0_128_961
*4160 FILLER_0_128_97
*4161 FILLER_0_128_973
*4162 FILLER_0_128_979
*4163 FILLER_0_128_981
*4164 FILLER_0_128_993
*4165 FILLER_0_129_1001
*4166 FILLER_0_129_1007
*4167 FILLER_0_129_1009
*4168 FILLER_0_129_1021
*4169 FILLER_0_129_1033
*4170 FILLER_0_129_1045
*4171 FILLER_0_129_105
*4172 FILLER_0_129_1057
*4173 FILLER_0_129_111
*4174 FILLER_0_129_113
*4175 FILLER_0_129_125
*4176 FILLER_0_129_137
*4177 FILLER_0_129_149
*4178 FILLER_0_129_15
*4179 FILLER_0_129_161
*4180 FILLER_0_129_167
*4181 FILLER_0_129_169
*4182 FILLER_0_129_181
*4183 FILLER_0_129_193
*4184 FILLER_0_129_205
*4185 FILLER_0_129_217
*4186 FILLER_0_129_223
*4187 FILLER_0_129_225
*4188 FILLER_0_129_237
*4189 FILLER_0_129_249
*4190 FILLER_0_129_261
*4191 FILLER_0_129_27
*4192 FILLER_0_129_273
*4193 FILLER_0_129_279
*4194 FILLER_0_129_281
*4195 FILLER_0_129_293
*4196 FILLER_0_129_3
*4197 FILLER_0_129_305
*4198 FILLER_0_129_317
*4199 FILLER_0_129_329
*4200 FILLER_0_129_335
*4201 FILLER_0_129_337
*4202 FILLER_0_129_349
*4203 FILLER_0_129_361
*4204 FILLER_0_129_373
*4205 FILLER_0_129_385
*4206 FILLER_0_129_39
*4207 FILLER_0_129_391
*4208 FILLER_0_129_393
*4209 FILLER_0_129_405
*4210 FILLER_0_129_417
*4211 FILLER_0_129_429
*4212 FILLER_0_129_441
*4213 FILLER_0_129_447
*4214 FILLER_0_129_449
*4215 FILLER_0_129_461
*4216 FILLER_0_129_473
*4217 FILLER_0_129_485
*4218 FILLER_0_129_497
*4219 FILLER_0_129_503
*4220 FILLER_0_129_505
*4221 FILLER_0_129_51
*4222 FILLER_0_129_517
*4223 FILLER_0_129_529
*4224 FILLER_0_129_541
*4225 FILLER_0_129_55
*4226 FILLER_0_129_553
*4227 FILLER_0_129_559
*4228 FILLER_0_129_561
*4229 FILLER_0_129_57
*4230 FILLER_0_129_573
*4231 FILLER_0_129_585
*4232 FILLER_0_129_597
*4233 FILLER_0_129_609
*4234 FILLER_0_129_615
*4235 FILLER_0_129_617
*4236 FILLER_0_129_629
*4237 FILLER_0_129_641
*4238 FILLER_0_129_653
*4239 FILLER_0_129_665
*4240 FILLER_0_129_671
*4241 FILLER_0_129_673
*4242 FILLER_0_129_685
*4243 FILLER_0_129_69
*4244 FILLER_0_129_697
*4245 FILLER_0_129_709
*4246 FILLER_0_129_721
*4247 FILLER_0_129_727
*4248 FILLER_0_129_729
*4249 FILLER_0_129_741
*4250 FILLER_0_129_753
*4251 FILLER_0_129_765
*4252 FILLER_0_129_777
*4253 FILLER_0_129_783
*4254 FILLER_0_129_785
*4255 FILLER_0_129_797
*4256 FILLER_0_129_809
*4257 FILLER_0_129_81
*4258 FILLER_0_129_821
*4259 FILLER_0_129_833
*4260 FILLER_0_129_839
*4261 FILLER_0_129_841
*4262 FILLER_0_129_853
*4263 FILLER_0_129_865
*4264 FILLER_0_129_877
*4265 FILLER_0_129_889
*4266 FILLER_0_129_895
*4267 FILLER_0_129_897
*4268 FILLER_0_129_909
*4269 FILLER_0_129_921
*4270 FILLER_0_129_93
*4271 FILLER_0_129_933
*4272 FILLER_0_129_945
*4273 FILLER_0_129_951
*4274 FILLER_0_129_953
*4275 FILLER_0_129_965
*4276 FILLER_0_129_977
*4277 FILLER_0_129_989
*4278 FILLER_0_12_1005
*4279 FILLER_0_12_1017
*4280 FILLER_0_12_1029
*4281 FILLER_0_12_1035
*4282 FILLER_0_12_1037
*4283 FILLER_0_12_1049
*4284 FILLER_0_12_1057
*4285 FILLER_0_12_109
*4286 FILLER_0_12_121
*4287 FILLER_0_12_133
*4288 FILLER_0_12_139
*4289 FILLER_0_12_141
*4290 FILLER_0_12_15
*4291 FILLER_0_12_153
*4292 FILLER_0_12_165
*4293 FILLER_0_12_177
*4294 FILLER_0_12_189
*4295 FILLER_0_12_195
*4296 FILLER_0_12_197
*4297 FILLER_0_12_209
*4298 FILLER_0_12_221
*4299 FILLER_0_12_233
*4300 FILLER_0_12_245
*4301 FILLER_0_12_251
*4302 FILLER_0_12_253
*4303 FILLER_0_12_265
*4304 FILLER_0_12_27
*4305 FILLER_0_12_277
*4306 FILLER_0_12_289
*4307 FILLER_0_12_29
*4308 FILLER_0_12_3
*4309 FILLER_0_12_301
*4310 FILLER_0_12_307
*4311 FILLER_0_12_309
*4312 FILLER_0_12_321
*4313 FILLER_0_12_333
*4314 FILLER_0_12_345
*4315 FILLER_0_12_357
*4316 FILLER_0_12_363
*4317 FILLER_0_12_365
*4318 FILLER_0_12_377
*4319 FILLER_0_12_389
*4320 FILLER_0_12_401
*4321 FILLER_0_12_41
*4322 FILLER_0_12_413
*4323 FILLER_0_12_419
*4324 FILLER_0_12_421
*4325 FILLER_0_12_433
*4326 FILLER_0_12_445
*4327 FILLER_0_12_457
*4328 FILLER_0_12_469
*4329 FILLER_0_12_475
*4330 FILLER_0_12_477
*4331 FILLER_0_12_489
*4332 FILLER_0_12_501
*4333 FILLER_0_12_513
*4334 FILLER_0_12_525
*4335 FILLER_0_12_53
*4336 FILLER_0_12_531
*4337 FILLER_0_12_533
*4338 FILLER_0_12_545
*4339 FILLER_0_12_557
*4340 FILLER_0_12_569
*4341 FILLER_0_12_581
*4342 FILLER_0_12_587
*4343 FILLER_0_12_589
*4344 FILLER_0_12_601
*4345 FILLER_0_12_613
*4346 FILLER_0_12_625
*4347 FILLER_0_12_637
*4348 FILLER_0_12_643
*4349 FILLER_0_12_645
*4350 FILLER_0_12_65
*4351 FILLER_0_12_657
*4352 FILLER_0_12_669
*4353 FILLER_0_12_681
*4354 FILLER_0_12_693
*4355 FILLER_0_12_699
*4356 FILLER_0_12_701
*4357 FILLER_0_12_713
*4358 FILLER_0_12_725
*4359 FILLER_0_12_737
*4360 FILLER_0_12_749
*4361 FILLER_0_12_755
*4362 FILLER_0_12_757
*4363 FILLER_0_12_769
*4364 FILLER_0_12_77
*4365 FILLER_0_12_781
*4366 FILLER_0_12_793
*4367 FILLER_0_12_805
*4368 FILLER_0_12_811
*4369 FILLER_0_12_813
*4370 FILLER_0_12_825
*4371 FILLER_0_12_83
*4372 FILLER_0_12_837
*4373 FILLER_0_12_849
*4374 FILLER_0_12_85
*4375 FILLER_0_12_861
*4376 FILLER_0_12_867
*4377 FILLER_0_12_869
*4378 FILLER_0_12_881
*4379 FILLER_0_12_893
*4380 FILLER_0_12_905
*4381 FILLER_0_12_917
*4382 FILLER_0_12_923
*4383 FILLER_0_12_925
*4384 FILLER_0_12_937
*4385 FILLER_0_12_949
*4386 FILLER_0_12_961
*4387 FILLER_0_12_97
*4388 FILLER_0_12_973
*4389 FILLER_0_12_979
*4390 FILLER_0_12_981
*4391 FILLER_0_12_993
*4392 FILLER_0_130_1005
*4393 FILLER_0_130_1017
*4394 FILLER_0_130_1029
*4395 FILLER_0_130_1035
*4396 FILLER_0_130_1037
*4397 FILLER_0_130_1049
*4398 FILLER_0_130_1057
*4399 FILLER_0_130_109
*4400 FILLER_0_130_121
*4401 FILLER_0_130_133
*4402 FILLER_0_130_139
*4403 FILLER_0_130_141
*4404 FILLER_0_130_15
*4405 FILLER_0_130_153
*4406 FILLER_0_130_165
*4407 FILLER_0_130_177
*4408 FILLER_0_130_189
*4409 FILLER_0_130_195
*4410 FILLER_0_130_197
*4411 FILLER_0_130_209
*4412 FILLER_0_130_221
*4413 FILLER_0_130_233
*4414 FILLER_0_130_245
*4415 FILLER_0_130_251
*4416 FILLER_0_130_253
*4417 FILLER_0_130_265
*4418 FILLER_0_130_27
*4419 FILLER_0_130_277
*4420 FILLER_0_130_289
*4421 FILLER_0_130_29
*4422 FILLER_0_130_3
*4423 FILLER_0_130_301
*4424 FILLER_0_130_307
*4425 FILLER_0_130_309
*4426 FILLER_0_130_321
*4427 FILLER_0_130_333
*4428 FILLER_0_130_345
*4429 FILLER_0_130_357
*4430 FILLER_0_130_363
*4431 FILLER_0_130_365
*4432 FILLER_0_130_377
*4433 FILLER_0_130_389
*4434 FILLER_0_130_401
*4435 FILLER_0_130_41
*4436 FILLER_0_130_413
*4437 FILLER_0_130_419
*4438 FILLER_0_130_421
*4439 FILLER_0_130_433
*4440 FILLER_0_130_445
*4441 FILLER_0_130_457
*4442 FILLER_0_130_469
*4443 FILLER_0_130_475
*4444 FILLER_0_130_477
*4445 FILLER_0_130_489
*4446 FILLER_0_130_501
*4447 FILLER_0_130_513
*4448 FILLER_0_130_525
*4449 FILLER_0_130_53
*4450 FILLER_0_130_531
*4451 FILLER_0_130_533
*4452 FILLER_0_130_545
*4453 FILLER_0_130_557
*4454 FILLER_0_130_569
*4455 FILLER_0_130_581
*4456 FILLER_0_130_587
*4457 FILLER_0_130_589
*4458 FILLER_0_130_601
*4459 FILLER_0_130_613
*4460 FILLER_0_130_625
*4461 FILLER_0_130_637
*4462 FILLER_0_130_643
*4463 FILLER_0_130_645
*4464 FILLER_0_130_65
*4465 FILLER_0_130_657
*4466 FILLER_0_130_669
*4467 FILLER_0_130_681
*4468 FILLER_0_130_693
*4469 FILLER_0_130_699
*4470 FILLER_0_130_701
*4471 FILLER_0_130_713
*4472 FILLER_0_130_725
*4473 FILLER_0_130_737
*4474 FILLER_0_130_749
*4475 FILLER_0_130_755
*4476 FILLER_0_130_757
*4477 FILLER_0_130_769
*4478 FILLER_0_130_77
*4479 FILLER_0_130_781
*4480 FILLER_0_130_793
*4481 FILLER_0_130_805
*4482 FILLER_0_130_811
*4483 FILLER_0_130_813
*4484 FILLER_0_130_825
*4485 FILLER_0_130_83
*4486 FILLER_0_130_837
*4487 FILLER_0_130_849
*4488 FILLER_0_130_85
*4489 FILLER_0_130_861
*4490 FILLER_0_130_867
*4491 FILLER_0_130_869
*4492 FILLER_0_130_881
*4493 FILLER_0_130_893
*4494 FILLER_0_130_905
*4495 FILLER_0_130_917
*4496 FILLER_0_130_923
*4497 FILLER_0_130_925
*4498 FILLER_0_130_937
*4499 FILLER_0_130_949
*4500 FILLER_0_130_961
*4501 FILLER_0_130_97
*4502 FILLER_0_130_973
*4503 FILLER_0_130_979
*4504 FILLER_0_130_981
*4505 FILLER_0_130_993
*4506 FILLER_0_131_1001
*4507 FILLER_0_131_1007
*4508 FILLER_0_131_1009
*4509 FILLER_0_131_1021
*4510 FILLER_0_131_1033
*4511 FILLER_0_131_1045
*4512 FILLER_0_131_105
*4513 FILLER_0_131_1057
*4514 FILLER_0_131_111
*4515 FILLER_0_131_113
*4516 FILLER_0_131_125
*4517 FILLER_0_131_137
*4518 FILLER_0_131_149
*4519 FILLER_0_131_15
*4520 FILLER_0_131_161
*4521 FILLER_0_131_167
*4522 FILLER_0_131_169
*4523 FILLER_0_131_181
*4524 FILLER_0_131_193
*4525 FILLER_0_131_205
*4526 FILLER_0_131_217
*4527 FILLER_0_131_223
*4528 FILLER_0_131_225
*4529 FILLER_0_131_237
*4530 FILLER_0_131_249
*4531 FILLER_0_131_261
*4532 FILLER_0_131_27
*4533 FILLER_0_131_273
*4534 FILLER_0_131_279
*4535 FILLER_0_131_281
*4536 FILLER_0_131_293
*4537 FILLER_0_131_3
*4538 FILLER_0_131_305
*4539 FILLER_0_131_317
*4540 FILLER_0_131_329
*4541 FILLER_0_131_335
*4542 FILLER_0_131_337
*4543 FILLER_0_131_349
*4544 FILLER_0_131_361
*4545 FILLER_0_131_373
*4546 FILLER_0_131_385
*4547 FILLER_0_131_39
*4548 FILLER_0_131_391
*4549 FILLER_0_131_393
*4550 FILLER_0_131_405
*4551 FILLER_0_131_417
*4552 FILLER_0_131_429
*4553 FILLER_0_131_441
*4554 FILLER_0_131_447
*4555 FILLER_0_131_449
*4556 FILLER_0_131_461
*4557 FILLER_0_131_473
*4558 FILLER_0_131_485
*4559 FILLER_0_131_497
*4560 FILLER_0_131_503
*4561 FILLER_0_131_505
*4562 FILLER_0_131_51
*4563 FILLER_0_131_517
*4564 FILLER_0_131_529
*4565 FILLER_0_131_541
*4566 FILLER_0_131_55
*4567 FILLER_0_131_553
*4568 FILLER_0_131_559
*4569 FILLER_0_131_561
*4570 FILLER_0_131_57
*4571 FILLER_0_131_573
*4572 FILLER_0_131_585
*4573 FILLER_0_131_597
*4574 FILLER_0_131_609
*4575 FILLER_0_131_615
*4576 FILLER_0_131_617
*4577 FILLER_0_131_629
*4578 FILLER_0_131_641
*4579 FILLER_0_131_653
*4580 FILLER_0_131_665
*4581 FILLER_0_131_671
*4582 FILLER_0_131_673
*4583 FILLER_0_131_685
*4584 FILLER_0_131_69
*4585 FILLER_0_131_697
*4586 FILLER_0_131_709
*4587 FILLER_0_131_721
*4588 FILLER_0_131_727
*4589 FILLER_0_131_729
*4590 FILLER_0_131_741
*4591 FILLER_0_131_753
*4592 FILLER_0_131_765
*4593 FILLER_0_131_777
*4594 FILLER_0_131_783
*4595 FILLER_0_131_785
*4596 FILLER_0_131_797
*4597 FILLER_0_131_809
*4598 FILLER_0_131_81
*4599 FILLER_0_131_821
*4600 FILLER_0_131_833
*4601 FILLER_0_131_839
*4602 FILLER_0_131_841
*4603 FILLER_0_131_853
*4604 FILLER_0_131_865
*4605 FILLER_0_131_877
*4606 FILLER_0_131_889
*4607 FILLER_0_131_895
*4608 FILLER_0_131_897
*4609 FILLER_0_131_909
*4610 FILLER_0_131_921
*4611 FILLER_0_131_93
*4612 FILLER_0_131_933
*4613 FILLER_0_131_945
*4614 FILLER_0_131_951
*4615 FILLER_0_131_953
*4616 FILLER_0_131_965
*4617 FILLER_0_131_977
*4618 FILLER_0_131_989
*4619 FILLER_0_132_1005
*4620 FILLER_0_132_1017
*4621 FILLER_0_132_1029
*4622 FILLER_0_132_1035
*4623 FILLER_0_132_1037
*4624 FILLER_0_132_1049
*4625 FILLER_0_132_1057
*4626 FILLER_0_132_109
*4627 FILLER_0_132_121
*4628 FILLER_0_132_133
*4629 FILLER_0_132_139
*4630 FILLER_0_132_141
*4631 FILLER_0_132_15
*4632 FILLER_0_132_153
*4633 FILLER_0_132_165
*4634 FILLER_0_132_177
*4635 FILLER_0_132_189
*4636 FILLER_0_132_195
*4637 FILLER_0_132_197
*4638 FILLER_0_132_209
*4639 FILLER_0_132_221
*4640 FILLER_0_132_233
*4641 FILLER_0_132_245
*4642 FILLER_0_132_251
*4643 FILLER_0_132_253
*4644 FILLER_0_132_265
*4645 FILLER_0_132_27
*4646 FILLER_0_132_277
*4647 FILLER_0_132_289
*4648 FILLER_0_132_29
*4649 FILLER_0_132_3
*4650 FILLER_0_132_301
*4651 FILLER_0_132_307
*4652 FILLER_0_132_309
*4653 FILLER_0_132_321
*4654 FILLER_0_132_333
*4655 FILLER_0_132_345
*4656 FILLER_0_132_357
*4657 FILLER_0_132_363
*4658 FILLER_0_132_365
*4659 FILLER_0_132_377
*4660 FILLER_0_132_389
*4661 FILLER_0_132_401
*4662 FILLER_0_132_41
*4663 FILLER_0_132_413
*4664 FILLER_0_132_419
*4665 FILLER_0_132_421
*4666 FILLER_0_132_433
*4667 FILLER_0_132_445
*4668 FILLER_0_132_457
*4669 FILLER_0_132_469
*4670 FILLER_0_132_475
*4671 FILLER_0_132_477
*4672 FILLER_0_132_489
*4673 FILLER_0_132_501
*4674 FILLER_0_132_513
*4675 FILLER_0_132_525
*4676 FILLER_0_132_53
*4677 FILLER_0_132_531
*4678 FILLER_0_132_533
*4679 FILLER_0_132_545
*4680 FILLER_0_132_557
*4681 FILLER_0_132_569
*4682 FILLER_0_132_581
*4683 FILLER_0_132_587
*4684 FILLER_0_132_589
*4685 FILLER_0_132_601
*4686 FILLER_0_132_613
*4687 FILLER_0_132_625
*4688 FILLER_0_132_637
*4689 FILLER_0_132_643
*4690 FILLER_0_132_645
*4691 FILLER_0_132_65
*4692 FILLER_0_132_657
*4693 FILLER_0_132_669
*4694 FILLER_0_132_681
*4695 FILLER_0_132_693
*4696 FILLER_0_132_699
*4697 FILLER_0_132_701
*4698 FILLER_0_132_713
*4699 FILLER_0_132_725
*4700 FILLER_0_132_737
*4701 FILLER_0_132_749
*4702 FILLER_0_132_755
*4703 FILLER_0_132_757
*4704 FILLER_0_132_769
*4705 FILLER_0_132_77
*4706 FILLER_0_132_781
*4707 FILLER_0_132_793
*4708 FILLER_0_132_805
*4709 FILLER_0_132_811
*4710 FILLER_0_132_813
*4711 FILLER_0_132_825
*4712 FILLER_0_132_83
*4713 FILLER_0_132_837
*4714 FILLER_0_132_849
*4715 FILLER_0_132_85
*4716 FILLER_0_132_861
*4717 FILLER_0_132_867
*4718 FILLER_0_132_869
*4719 FILLER_0_132_881
*4720 FILLER_0_132_893
*4721 FILLER_0_132_905
*4722 FILLER_0_132_917
*4723 FILLER_0_132_923
*4724 FILLER_0_132_925
*4725 FILLER_0_132_937
*4726 FILLER_0_132_949
*4727 FILLER_0_132_961
*4728 FILLER_0_132_97
*4729 FILLER_0_132_973
*4730 FILLER_0_132_979
*4731 FILLER_0_132_981
*4732 FILLER_0_132_993
*4733 FILLER_0_133_1001
*4734 FILLER_0_133_1007
*4735 FILLER_0_133_1009
*4736 FILLER_0_133_1021
*4737 FILLER_0_133_1033
*4738 FILLER_0_133_1045
*4739 FILLER_0_133_105
*4740 FILLER_0_133_1057
*4741 FILLER_0_133_111
*4742 FILLER_0_133_113
*4743 FILLER_0_133_125
*4744 FILLER_0_133_137
*4745 FILLER_0_133_149
*4746 FILLER_0_133_15
*4747 FILLER_0_133_161
*4748 FILLER_0_133_167
*4749 FILLER_0_133_169
*4750 FILLER_0_133_181
*4751 FILLER_0_133_193
*4752 FILLER_0_133_205
*4753 FILLER_0_133_217
*4754 FILLER_0_133_223
*4755 FILLER_0_133_225
*4756 FILLER_0_133_237
*4757 FILLER_0_133_249
*4758 FILLER_0_133_261
*4759 FILLER_0_133_27
*4760 FILLER_0_133_273
*4761 FILLER_0_133_279
*4762 FILLER_0_133_281
*4763 FILLER_0_133_293
*4764 FILLER_0_133_3
*4765 FILLER_0_133_305
*4766 FILLER_0_133_317
*4767 FILLER_0_133_329
*4768 FILLER_0_133_335
*4769 FILLER_0_133_337
*4770 FILLER_0_133_349
*4771 FILLER_0_133_361
*4772 FILLER_0_133_373
*4773 FILLER_0_133_385
*4774 FILLER_0_133_39
*4775 FILLER_0_133_391
*4776 FILLER_0_133_393
*4777 FILLER_0_133_405
*4778 FILLER_0_133_417
*4779 FILLER_0_133_429
*4780 FILLER_0_133_441
*4781 FILLER_0_133_447
*4782 FILLER_0_133_449
*4783 FILLER_0_133_461
*4784 FILLER_0_133_473
*4785 FILLER_0_133_485
*4786 FILLER_0_133_497
*4787 FILLER_0_133_503
*4788 FILLER_0_133_505
*4789 FILLER_0_133_51
*4790 FILLER_0_133_517
*4791 FILLER_0_133_529
*4792 FILLER_0_133_541
*4793 FILLER_0_133_55
*4794 FILLER_0_133_553
*4795 FILLER_0_133_559
*4796 FILLER_0_133_561
*4797 FILLER_0_133_57
*4798 FILLER_0_133_573
*4799 FILLER_0_133_585
*4800 FILLER_0_133_597
*4801 FILLER_0_133_609
*4802 FILLER_0_133_615
*4803 FILLER_0_133_617
*4804 FILLER_0_133_629
*4805 FILLER_0_133_641
*4806 FILLER_0_133_653
*4807 FILLER_0_133_665
*4808 FILLER_0_133_671
*4809 FILLER_0_133_673
*4810 FILLER_0_133_685
*4811 FILLER_0_133_69
*4812 FILLER_0_133_697
*4813 FILLER_0_133_709
*4814 FILLER_0_133_721
*4815 FILLER_0_133_727
*4816 FILLER_0_133_729
*4817 FILLER_0_133_741
*4818 FILLER_0_133_753
*4819 FILLER_0_133_765
*4820 FILLER_0_133_777
*4821 FILLER_0_133_783
*4822 FILLER_0_133_785
*4823 FILLER_0_133_797
*4824 FILLER_0_133_809
*4825 FILLER_0_133_81
*4826 FILLER_0_133_821
*4827 FILLER_0_133_833
*4828 FILLER_0_133_839
*4829 FILLER_0_133_841
*4830 FILLER_0_133_853
*4831 FILLER_0_133_865
*4832 FILLER_0_133_877
*4833 FILLER_0_133_889
*4834 FILLER_0_133_895
*4835 FILLER_0_133_897
*4836 FILLER_0_133_909
*4837 FILLER_0_133_921
*4838 FILLER_0_133_93
*4839 FILLER_0_133_933
*4840 FILLER_0_133_945
*4841 FILLER_0_133_951
*4842 FILLER_0_133_953
*4843 FILLER_0_133_965
*4844 FILLER_0_133_977
*4845 FILLER_0_133_989
*4846 FILLER_0_134_1005
*4847 FILLER_0_134_1017
*4848 FILLER_0_134_1029
*4849 FILLER_0_134_1035
*4850 FILLER_0_134_1037
*4851 FILLER_0_134_1049
*4852 FILLER_0_134_1057
*4853 FILLER_0_134_109
*4854 FILLER_0_134_121
*4855 FILLER_0_134_133
*4856 FILLER_0_134_139
*4857 FILLER_0_134_141
*4858 FILLER_0_134_15
*4859 FILLER_0_134_153
*4860 FILLER_0_134_165
*4861 FILLER_0_134_177
*4862 FILLER_0_134_189
*4863 FILLER_0_134_195
*4864 FILLER_0_134_197
*4865 FILLER_0_134_209
*4866 FILLER_0_134_221
*4867 FILLER_0_134_233
*4868 FILLER_0_134_245
*4869 FILLER_0_134_251
*4870 FILLER_0_134_253
*4871 FILLER_0_134_265
*4872 FILLER_0_134_27
*4873 FILLER_0_134_277
*4874 FILLER_0_134_289
*4875 FILLER_0_134_29
*4876 FILLER_0_134_3
*4877 FILLER_0_134_301
*4878 FILLER_0_134_307
*4879 FILLER_0_134_309
*4880 FILLER_0_134_321
*4881 FILLER_0_134_333
*4882 FILLER_0_134_345
*4883 FILLER_0_134_357
*4884 FILLER_0_134_363
*4885 FILLER_0_134_365
*4886 FILLER_0_134_377
*4887 FILLER_0_134_389
*4888 FILLER_0_134_401
*4889 FILLER_0_134_41
*4890 FILLER_0_134_413
*4891 FILLER_0_134_419
*4892 FILLER_0_134_421
*4893 FILLER_0_134_433
*4894 FILLER_0_134_445
*4895 FILLER_0_134_457
*4896 FILLER_0_134_469
*4897 FILLER_0_134_475
*4898 FILLER_0_134_477
*4899 FILLER_0_134_489
*4900 FILLER_0_134_501
*4901 FILLER_0_134_513
*4902 FILLER_0_134_525
*4903 FILLER_0_134_53
*4904 FILLER_0_134_531
*4905 FILLER_0_134_533
*4906 FILLER_0_134_545
*4907 FILLER_0_134_557
*4908 FILLER_0_134_569
*4909 FILLER_0_134_581
*4910 FILLER_0_134_587
*4911 FILLER_0_134_589
*4912 FILLER_0_134_601
*4913 FILLER_0_134_613
*4914 FILLER_0_134_625
*4915 FILLER_0_134_637
*4916 FILLER_0_134_643
*4917 FILLER_0_134_645
*4918 FILLER_0_134_65
*4919 FILLER_0_134_657
*4920 FILLER_0_134_669
*4921 FILLER_0_134_681
*4922 FILLER_0_134_693
*4923 FILLER_0_134_699
*4924 FILLER_0_134_701
*4925 FILLER_0_134_713
*4926 FILLER_0_134_725
*4927 FILLER_0_134_737
*4928 FILLER_0_134_749
*4929 FILLER_0_134_755
*4930 FILLER_0_134_757
*4931 FILLER_0_134_769
*4932 FILLER_0_134_77
*4933 FILLER_0_134_781
*4934 FILLER_0_134_793
*4935 FILLER_0_134_805
*4936 FILLER_0_134_811
*4937 FILLER_0_134_813
*4938 FILLER_0_134_825
*4939 FILLER_0_134_83
*4940 FILLER_0_134_837
*4941 FILLER_0_134_849
*4942 FILLER_0_134_85
*4943 FILLER_0_134_861
*4944 FILLER_0_134_867
*4945 FILLER_0_134_869
*4946 FILLER_0_134_881
*4947 FILLER_0_134_893
*4948 FILLER_0_134_905
*4949 FILLER_0_134_917
*4950 FILLER_0_134_923
*4951 FILLER_0_134_925
*4952 FILLER_0_134_937
*4953 FILLER_0_134_949
*4954 FILLER_0_134_961
*4955 FILLER_0_134_97
*4956 FILLER_0_134_973
*4957 FILLER_0_134_979
*4958 FILLER_0_134_981
*4959 FILLER_0_134_993
*4960 FILLER_0_135_1001
*4961 FILLER_0_135_1007
*4962 FILLER_0_135_1009
*4963 FILLER_0_135_1021
*4964 FILLER_0_135_1033
*4965 FILLER_0_135_1045
*4966 FILLER_0_135_105
*4967 FILLER_0_135_1057
*4968 FILLER_0_135_111
*4969 FILLER_0_135_113
*4970 FILLER_0_135_125
*4971 FILLER_0_135_137
*4972 FILLER_0_135_149
*4973 FILLER_0_135_15
*4974 FILLER_0_135_161
*4975 FILLER_0_135_167
*4976 FILLER_0_135_169
*4977 FILLER_0_135_181
*4978 FILLER_0_135_193
*4979 FILLER_0_135_205
*4980 FILLER_0_135_217
*4981 FILLER_0_135_223
*4982 FILLER_0_135_225
*4983 FILLER_0_135_237
*4984 FILLER_0_135_249
*4985 FILLER_0_135_261
*4986 FILLER_0_135_27
*4987 FILLER_0_135_273
*4988 FILLER_0_135_279
*4989 FILLER_0_135_281
*4990 FILLER_0_135_293
*4991 FILLER_0_135_3
*4992 FILLER_0_135_305
*4993 FILLER_0_135_317
*4994 FILLER_0_135_329
*4995 FILLER_0_135_335
*4996 FILLER_0_135_337
*4997 FILLER_0_135_349
*4998 FILLER_0_135_361
*4999 FILLER_0_135_373
*5000 FILLER_0_135_385
*5001 FILLER_0_135_39
*5002 FILLER_0_135_391
*5003 FILLER_0_135_393
*5004 FILLER_0_135_405
*5005 FILLER_0_135_417
*5006 FILLER_0_135_429
*5007 FILLER_0_135_441
*5008 FILLER_0_135_447
*5009 FILLER_0_135_449
*5010 FILLER_0_135_461
*5011 FILLER_0_135_473
*5012 FILLER_0_135_485
*5013 FILLER_0_135_497
*5014 FILLER_0_135_503
*5015 FILLER_0_135_505
*5016 FILLER_0_135_51
*5017 FILLER_0_135_517
*5018 FILLER_0_135_529
*5019 FILLER_0_135_541
*5020 FILLER_0_135_55
*5021 FILLER_0_135_553
*5022 FILLER_0_135_559
*5023 FILLER_0_135_561
*5024 FILLER_0_135_57
*5025 FILLER_0_135_573
*5026 FILLER_0_135_585
*5027 FILLER_0_135_597
*5028 FILLER_0_135_609
*5029 FILLER_0_135_615
*5030 FILLER_0_135_617
*5031 FILLER_0_135_629
*5032 FILLER_0_135_641
*5033 FILLER_0_135_653
*5034 FILLER_0_135_665
*5035 FILLER_0_135_671
*5036 FILLER_0_135_673
*5037 FILLER_0_135_685
*5038 FILLER_0_135_69
*5039 FILLER_0_135_697
*5040 FILLER_0_135_709
*5041 FILLER_0_135_721
*5042 FILLER_0_135_727
*5043 FILLER_0_135_729
*5044 FILLER_0_135_741
*5045 FILLER_0_135_753
*5046 FILLER_0_135_765
*5047 FILLER_0_135_777
*5048 FILLER_0_135_783
*5049 FILLER_0_135_785
*5050 FILLER_0_135_797
*5051 FILLER_0_135_809
*5052 FILLER_0_135_81
*5053 FILLER_0_135_821
*5054 FILLER_0_135_833
*5055 FILLER_0_135_839
*5056 FILLER_0_135_841
*5057 FILLER_0_135_853
*5058 FILLER_0_135_865
*5059 FILLER_0_135_877
*5060 FILLER_0_135_889
*5061 FILLER_0_135_895
*5062 FILLER_0_135_897
*5063 FILLER_0_135_909
*5064 FILLER_0_135_921
*5065 FILLER_0_135_93
*5066 FILLER_0_135_933
*5067 FILLER_0_135_945
*5068 FILLER_0_135_951
*5069 FILLER_0_135_953
*5070 FILLER_0_135_965
*5071 FILLER_0_135_977
*5072 FILLER_0_135_989
*5073 FILLER_0_136_1005
*5074 FILLER_0_136_1017
*5075 FILLER_0_136_1029
*5076 FILLER_0_136_1035
*5077 FILLER_0_136_1037
*5078 FILLER_0_136_1049
*5079 FILLER_0_136_1057
*5080 FILLER_0_136_109
*5081 FILLER_0_136_121
*5082 FILLER_0_136_133
*5083 FILLER_0_136_139
*5084 FILLER_0_136_141
*5085 FILLER_0_136_15
*5086 FILLER_0_136_153
*5087 FILLER_0_136_165
*5088 FILLER_0_136_177
*5089 FILLER_0_136_189
*5090 FILLER_0_136_195
*5091 FILLER_0_136_197
*5092 FILLER_0_136_209
*5093 FILLER_0_136_221
*5094 FILLER_0_136_233
*5095 FILLER_0_136_245
*5096 FILLER_0_136_251
*5097 FILLER_0_136_253
*5098 FILLER_0_136_265
*5099 FILLER_0_136_27
*5100 FILLER_0_136_277
*5101 FILLER_0_136_289
*5102 FILLER_0_136_29
*5103 FILLER_0_136_3
*5104 FILLER_0_136_301
*5105 FILLER_0_136_307
*5106 FILLER_0_136_309
*5107 FILLER_0_136_321
*5108 FILLER_0_136_333
*5109 FILLER_0_136_345
*5110 FILLER_0_136_357
*5111 FILLER_0_136_363
*5112 FILLER_0_136_365
*5113 FILLER_0_136_377
*5114 FILLER_0_136_389
*5115 FILLER_0_136_401
*5116 FILLER_0_136_41
*5117 FILLER_0_136_413
*5118 FILLER_0_136_419
*5119 FILLER_0_136_421
*5120 FILLER_0_136_433
*5121 FILLER_0_136_445
*5122 FILLER_0_136_457
*5123 FILLER_0_136_469
*5124 FILLER_0_136_475
*5125 FILLER_0_136_477
*5126 FILLER_0_136_489
*5127 FILLER_0_136_501
*5128 FILLER_0_136_513
*5129 FILLER_0_136_525
*5130 FILLER_0_136_53
*5131 FILLER_0_136_531
*5132 FILLER_0_136_533
*5133 FILLER_0_136_545
*5134 FILLER_0_136_557
*5135 FILLER_0_136_569
*5136 FILLER_0_136_581
*5137 FILLER_0_136_587
*5138 FILLER_0_136_589
*5139 FILLER_0_136_601
*5140 FILLER_0_136_613
*5141 FILLER_0_136_625
*5142 FILLER_0_136_637
*5143 FILLER_0_136_643
*5144 FILLER_0_136_645
*5145 FILLER_0_136_65
*5146 FILLER_0_136_657
*5147 FILLER_0_136_669
*5148 FILLER_0_136_681
*5149 FILLER_0_136_693
*5150 FILLER_0_136_699
*5151 FILLER_0_136_701
*5152 FILLER_0_136_713
*5153 FILLER_0_136_725
*5154 FILLER_0_136_737
*5155 FILLER_0_136_749
*5156 FILLER_0_136_755
*5157 FILLER_0_136_757
*5158 FILLER_0_136_769
*5159 FILLER_0_136_77
*5160 FILLER_0_136_781
*5161 FILLER_0_136_793
*5162 FILLER_0_136_805
*5163 FILLER_0_136_811
*5164 FILLER_0_136_813
*5165 FILLER_0_136_825
*5166 FILLER_0_136_83
*5167 FILLER_0_136_837
*5168 FILLER_0_136_849
*5169 FILLER_0_136_85
*5170 FILLER_0_136_861
*5171 FILLER_0_136_867
*5172 FILLER_0_136_869
*5173 FILLER_0_136_881
*5174 FILLER_0_136_893
*5175 FILLER_0_136_905
*5176 FILLER_0_136_917
*5177 FILLER_0_136_923
*5178 FILLER_0_136_925
*5179 FILLER_0_136_937
*5180 FILLER_0_136_949
*5181 FILLER_0_136_961
*5182 FILLER_0_136_97
*5183 FILLER_0_136_973
*5184 FILLER_0_136_979
*5185 FILLER_0_136_981
*5186 FILLER_0_136_993
*5187 FILLER_0_137_1001
*5188 FILLER_0_137_1007
*5189 FILLER_0_137_1009
*5190 FILLER_0_137_1021
*5191 FILLER_0_137_1033
*5192 FILLER_0_137_1045
*5193 FILLER_0_137_105
*5194 FILLER_0_137_1057
*5195 FILLER_0_137_111
*5196 FILLER_0_137_113
*5197 FILLER_0_137_125
*5198 FILLER_0_137_137
*5199 FILLER_0_137_149
*5200 FILLER_0_137_15
*5201 FILLER_0_137_161
*5202 FILLER_0_137_167
*5203 FILLER_0_137_169
*5204 FILLER_0_137_181
*5205 FILLER_0_137_193
*5206 FILLER_0_137_205
*5207 FILLER_0_137_217
*5208 FILLER_0_137_223
*5209 FILLER_0_137_225
*5210 FILLER_0_137_237
*5211 FILLER_0_137_249
*5212 FILLER_0_137_261
*5213 FILLER_0_137_27
*5214 FILLER_0_137_273
*5215 FILLER_0_137_279
*5216 FILLER_0_137_281
*5217 FILLER_0_137_293
*5218 FILLER_0_137_3
*5219 FILLER_0_137_305
*5220 FILLER_0_137_317
*5221 FILLER_0_137_329
*5222 FILLER_0_137_335
*5223 FILLER_0_137_337
*5224 FILLER_0_137_349
*5225 FILLER_0_137_361
*5226 FILLER_0_137_373
*5227 FILLER_0_137_385
*5228 FILLER_0_137_39
*5229 FILLER_0_137_391
*5230 FILLER_0_137_393
*5231 FILLER_0_137_405
*5232 FILLER_0_137_417
*5233 FILLER_0_137_429
*5234 FILLER_0_137_441
*5235 FILLER_0_137_447
*5236 FILLER_0_137_449
*5237 FILLER_0_137_461
*5238 FILLER_0_137_473
*5239 FILLER_0_137_485
*5240 FILLER_0_137_497
*5241 FILLER_0_137_503
*5242 FILLER_0_137_505
*5243 FILLER_0_137_51
*5244 FILLER_0_137_517
*5245 FILLER_0_137_529
*5246 FILLER_0_137_541
*5247 FILLER_0_137_55
*5248 FILLER_0_137_553
*5249 FILLER_0_137_559
*5250 FILLER_0_137_561
*5251 FILLER_0_137_57
*5252 FILLER_0_137_573
*5253 FILLER_0_137_585
*5254 FILLER_0_137_597
*5255 FILLER_0_137_609
*5256 FILLER_0_137_615
*5257 FILLER_0_137_617
*5258 FILLER_0_137_629
*5259 FILLER_0_137_641
*5260 FILLER_0_137_653
*5261 FILLER_0_137_665
*5262 FILLER_0_137_671
*5263 FILLER_0_137_673
*5264 FILLER_0_137_685
*5265 FILLER_0_137_69
*5266 FILLER_0_137_697
*5267 FILLER_0_137_709
*5268 FILLER_0_137_721
*5269 FILLER_0_137_727
*5270 FILLER_0_137_729
*5271 FILLER_0_137_741
*5272 FILLER_0_137_753
*5273 FILLER_0_137_765
*5274 FILLER_0_137_777
*5275 FILLER_0_137_783
*5276 FILLER_0_137_785
*5277 FILLER_0_137_797
*5278 FILLER_0_137_809
*5279 FILLER_0_137_81
*5280 FILLER_0_137_821
*5281 FILLER_0_137_833
*5282 FILLER_0_137_839
*5283 FILLER_0_137_841
*5284 FILLER_0_137_853
*5285 FILLER_0_137_865
*5286 FILLER_0_137_877
*5287 FILLER_0_137_889
*5288 FILLER_0_137_895
*5289 FILLER_0_137_897
*5290 FILLER_0_137_909
*5291 FILLER_0_137_921
*5292 FILLER_0_137_93
*5293 FILLER_0_137_933
*5294 FILLER_0_137_945
*5295 FILLER_0_137_951
*5296 FILLER_0_137_953
*5297 FILLER_0_137_965
*5298 FILLER_0_137_977
*5299 FILLER_0_137_989
*5300 FILLER_0_138_1005
*5301 FILLER_0_138_1017
*5302 FILLER_0_138_1029
*5303 FILLER_0_138_1035
*5304 FILLER_0_138_1037
*5305 FILLER_0_138_1049
*5306 FILLER_0_138_1057
*5307 FILLER_0_138_109
*5308 FILLER_0_138_121
*5309 FILLER_0_138_133
*5310 FILLER_0_138_139
*5311 FILLER_0_138_141
*5312 FILLER_0_138_153
*5313 FILLER_0_138_165
*5314 FILLER_0_138_177
*5315 FILLER_0_138_189
*5316 FILLER_0_138_19
*5317 FILLER_0_138_195
*5318 FILLER_0_138_197
*5319 FILLER_0_138_209
*5320 FILLER_0_138_221
*5321 FILLER_0_138_233
*5322 FILLER_0_138_245
*5323 FILLER_0_138_251
*5324 FILLER_0_138_253
*5325 FILLER_0_138_265
*5326 FILLER_0_138_27
*5327 FILLER_0_138_277
*5328 FILLER_0_138_289
*5329 FILLER_0_138_29
*5330 FILLER_0_138_301
*5331 FILLER_0_138_307
*5332 FILLER_0_138_309
*5333 FILLER_0_138_321
*5334 FILLER_0_138_333
*5335 FILLER_0_138_345
*5336 FILLER_0_138_357
*5337 FILLER_0_138_363
*5338 FILLER_0_138_365
*5339 FILLER_0_138_377
*5340 FILLER_0_138_389
*5341 FILLER_0_138_401
*5342 FILLER_0_138_41
*5343 FILLER_0_138_413
*5344 FILLER_0_138_419
*5345 FILLER_0_138_421
*5346 FILLER_0_138_433
*5347 FILLER_0_138_445
*5348 FILLER_0_138_457
*5349 FILLER_0_138_469
*5350 FILLER_0_138_475
*5351 FILLER_0_138_477
*5352 FILLER_0_138_489
*5353 FILLER_0_138_501
*5354 FILLER_0_138_513
*5355 FILLER_0_138_525
*5356 FILLER_0_138_53
*5357 FILLER_0_138_531
*5358 FILLER_0_138_533
*5359 FILLER_0_138_545
*5360 FILLER_0_138_557
*5361 FILLER_0_138_569
*5362 FILLER_0_138_581
*5363 FILLER_0_138_587
*5364 FILLER_0_138_589
*5365 FILLER_0_138_601
*5366 FILLER_0_138_613
*5367 FILLER_0_138_625
*5368 FILLER_0_138_637
*5369 FILLER_0_138_643
*5370 FILLER_0_138_645
*5371 FILLER_0_138_65
*5372 FILLER_0_138_657
*5373 FILLER_0_138_669
*5374 FILLER_0_138_681
*5375 FILLER_0_138_693
*5376 FILLER_0_138_699
*5377 FILLER_0_138_7
*5378 FILLER_0_138_701
*5379 FILLER_0_138_713
*5380 FILLER_0_138_725
*5381 FILLER_0_138_737
*5382 FILLER_0_138_749
*5383 FILLER_0_138_755
*5384 FILLER_0_138_757
*5385 FILLER_0_138_769
*5386 FILLER_0_138_77
*5387 FILLER_0_138_781
*5388 FILLER_0_138_793
*5389 FILLER_0_138_805
*5390 FILLER_0_138_811
*5391 FILLER_0_138_813
*5392 FILLER_0_138_825
*5393 FILLER_0_138_83
*5394 FILLER_0_138_837
*5395 FILLER_0_138_849
*5396 FILLER_0_138_85
*5397 FILLER_0_138_861
*5398 FILLER_0_138_867
*5399 FILLER_0_138_869
*5400 FILLER_0_138_881
*5401 FILLER_0_138_893
*5402 FILLER_0_138_905
*5403 FILLER_0_138_917
*5404 FILLER_0_138_923
*5405 FILLER_0_138_925
*5406 FILLER_0_138_937
*5407 FILLER_0_138_949
*5408 FILLER_0_138_961
*5409 FILLER_0_138_97
*5410 FILLER_0_138_973
*5411 FILLER_0_138_979
*5412 FILLER_0_138_981
*5413 FILLER_0_138_993
*5414 FILLER_0_139_1001
*5415 FILLER_0_139_1007
*5416 FILLER_0_139_1009
*5417 FILLER_0_139_1021
*5418 FILLER_0_139_1033
*5419 FILLER_0_139_1045
*5420 FILLER_0_139_105
*5421 FILLER_0_139_1057
*5422 FILLER_0_139_111
*5423 FILLER_0_139_113
*5424 FILLER_0_139_125
*5425 FILLER_0_139_137
*5426 FILLER_0_139_149
*5427 FILLER_0_139_15
*5428 FILLER_0_139_161
*5429 FILLER_0_139_167
*5430 FILLER_0_139_169
*5431 FILLER_0_139_181
*5432 FILLER_0_139_193
*5433 FILLER_0_139_205
*5434 FILLER_0_139_217
*5435 FILLER_0_139_223
*5436 FILLER_0_139_225
*5437 FILLER_0_139_237
*5438 FILLER_0_139_249
*5439 FILLER_0_139_261
*5440 FILLER_0_139_27
*5441 FILLER_0_139_273
*5442 FILLER_0_139_279
*5443 FILLER_0_139_281
*5444 FILLER_0_139_293
*5445 FILLER_0_139_3
*5446 FILLER_0_139_305
*5447 FILLER_0_139_317
*5448 FILLER_0_139_329
*5449 FILLER_0_139_335
*5450 FILLER_0_139_337
*5451 FILLER_0_139_349
*5452 FILLER_0_139_361
*5453 FILLER_0_139_373
*5454 FILLER_0_139_385
*5455 FILLER_0_139_39
*5456 FILLER_0_139_391
*5457 FILLER_0_139_393
*5458 FILLER_0_139_405
*5459 FILLER_0_139_417
*5460 FILLER_0_139_429
*5461 FILLER_0_139_441
*5462 FILLER_0_139_447
*5463 FILLER_0_139_449
*5464 FILLER_0_139_461
*5465 FILLER_0_139_473
*5466 FILLER_0_139_485
*5467 FILLER_0_139_497
*5468 FILLER_0_139_503
*5469 FILLER_0_139_505
*5470 FILLER_0_139_51
*5471 FILLER_0_139_517
*5472 FILLER_0_139_529
*5473 FILLER_0_139_541
*5474 FILLER_0_139_55
*5475 FILLER_0_139_553
*5476 FILLER_0_139_559
*5477 FILLER_0_139_561
*5478 FILLER_0_139_57
*5479 FILLER_0_139_573
*5480 FILLER_0_139_585
*5481 FILLER_0_139_597
*5482 FILLER_0_139_609
*5483 FILLER_0_139_615
*5484 FILLER_0_139_617
*5485 FILLER_0_139_629
*5486 FILLER_0_139_641
*5487 FILLER_0_139_653
*5488 FILLER_0_139_665
*5489 FILLER_0_139_671
*5490 FILLER_0_139_673
*5491 FILLER_0_139_685
*5492 FILLER_0_139_69
*5493 FILLER_0_139_697
*5494 FILLER_0_139_709
*5495 FILLER_0_139_721
*5496 FILLER_0_139_727
*5497 FILLER_0_139_729
*5498 FILLER_0_139_741
*5499 FILLER_0_139_753
*5500 FILLER_0_139_765
*5501 FILLER_0_139_777
*5502 FILLER_0_139_783
*5503 FILLER_0_139_785
*5504 FILLER_0_139_797
*5505 FILLER_0_139_809
*5506 FILLER_0_139_81
*5507 FILLER_0_139_821
*5508 FILLER_0_139_833
*5509 FILLER_0_139_839
*5510 FILLER_0_139_841
*5511 FILLER_0_139_853
*5512 FILLER_0_139_865
*5513 FILLER_0_139_877
*5514 FILLER_0_139_889
*5515 FILLER_0_139_895
*5516 FILLER_0_139_897
*5517 FILLER_0_139_909
*5518 FILLER_0_139_921
*5519 FILLER_0_139_93
*5520 FILLER_0_139_933
*5521 FILLER_0_139_945
*5522 FILLER_0_139_951
*5523 FILLER_0_139_953
*5524 FILLER_0_139_965
*5525 FILLER_0_139_977
*5526 FILLER_0_139_989
*5527 FILLER_0_13_1001
*5528 FILLER_0_13_1007
*5529 FILLER_0_13_1009
*5530 FILLER_0_13_1021
*5531 FILLER_0_13_1033
*5532 FILLER_0_13_1045
*5533 FILLER_0_13_105
*5534 FILLER_0_13_1057
*5535 FILLER_0_13_111
*5536 FILLER_0_13_113
*5537 FILLER_0_13_125
*5538 FILLER_0_13_13
*5539 FILLER_0_13_137
*5540 FILLER_0_13_149
*5541 FILLER_0_13_161
*5542 FILLER_0_13_167
*5543 FILLER_0_13_169
*5544 FILLER_0_13_181
*5545 FILLER_0_13_193
*5546 FILLER_0_13_205
*5547 FILLER_0_13_217
*5548 FILLER_0_13_223
*5549 FILLER_0_13_225
*5550 FILLER_0_13_237
*5551 FILLER_0_13_249
*5552 FILLER_0_13_25
*5553 FILLER_0_13_261
*5554 FILLER_0_13_273
*5555 FILLER_0_13_279
*5556 FILLER_0_13_281
*5557 FILLER_0_13_293
*5558 FILLER_0_13_305
*5559 FILLER_0_13_317
*5560 FILLER_0_13_329
*5561 FILLER_0_13_335
*5562 FILLER_0_13_337
*5563 FILLER_0_13_349
*5564 FILLER_0_13_361
*5565 FILLER_0_13_37
*5566 FILLER_0_13_373
*5567 FILLER_0_13_385
*5568 FILLER_0_13_391
*5569 FILLER_0_13_393
*5570 FILLER_0_13_405
*5571 FILLER_0_13_417
*5572 FILLER_0_13_429
*5573 FILLER_0_13_441
*5574 FILLER_0_13_447
*5575 FILLER_0_13_449
*5576 FILLER_0_13_461
*5577 FILLER_0_13_473
*5578 FILLER_0_13_485
*5579 FILLER_0_13_49
*5580 FILLER_0_13_497
*5581 FILLER_0_13_503
*5582 FILLER_0_13_505
*5583 FILLER_0_13_517
*5584 FILLER_0_13_529
*5585 FILLER_0_13_541
*5586 FILLER_0_13_55
*5587 FILLER_0_13_553
*5588 FILLER_0_13_559
*5589 FILLER_0_13_561
*5590 FILLER_0_13_57
*5591 FILLER_0_13_573
*5592 FILLER_0_13_585
*5593 FILLER_0_13_597
*5594 FILLER_0_13_609
*5595 FILLER_0_13_615
*5596 FILLER_0_13_617
*5597 FILLER_0_13_629
*5598 FILLER_0_13_641
*5599 FILLER_0_13_653
*5600 FILLER_0_13_665
*5601 FILLER_0_13_671
*5602 FILLER_0_13_673
*5603 FILLER_0_13_685
*5604 FILLER_0_13_69
*5605 FILLER_0_13_697
*5606 FILLER_0_13_709
*5607 FILLER_0_13_721
*5608 FILLER_0_13_727
*5609 FILLER_0_13_729
*5610 FILLER_0_13_741
*5611 FILLER_0_13_753
*5612 FILLER_0_13_765
*5613 FILLER_0_13_777
*5614 FILLER_0_13_783
*5615 FILLER_0_13_785
*5616 FILLER_0_13_797
*5617 FILLER_0_13_809
*5618 FILLER_0_13_81
*5619 FILLER_0_13_821
*5620 FILLER_0_13_833
*5621 FILLER_0_13_839
*5622 FILLER_0_13_841
*5623 FILLER_0_13_853
*5624 FILLER_0_13_865
*5625 FILLER_0_13_877
*5626 FILLER_0_13_889
*5627 FILLER_0_13_895
*5628 FILLER_0_13_897
*5629 FILLER_0_13_909
*5630 FILLER_0_13_921
*5631 FILLER_0_13_93
*5632 FILLER_0_13_933
*5633 FILLER_0_13_945
*5634 FILLER_0_13_951
*5635 FILLER_0_13_953
*5636 FILLER_0_13_965
*5637 FILLER_0_13_977
*5638 FILLER_0_13_989
*5639 FILLER_0_140_1005
*5640 FILLER_0_140_1017
*5641 FILLER_0_140_1029
*5642 FILLER_0_140_1035
*5643 FILLER_0_140_1037
*5644 FILLER_0_140_1049
*5645 FILLER_0_140_1057
*5646 FILLER_0_140_109
*5647 FILLER_0_140_121
*5648 FILLER_0_140_133
*5649 FILLER_0_140_139
*5650 FILLER_0_140_141
*5651 FILLER_0_140_15
*5652 FILLER_0_140_153
*5653 FILLER_0_140_165
*5654 FILLER_0_140_177
*5655 FILLER_0_140_189
*5656 FILLER_0_140_195
*5657 FILLER_0_140_197
*5658 FILLER_0_140_209
*5659 FILLER_0_140_221
*5660 FILLER_0_140_233
*5661 FILLER_0_140_245
*5662 FILLER_0_140_251
*5663 FILLER_0_140_253
*5664 FILLER_0_140_265
*5665 FILLER_0_140_27
*5666 FILLER_0_140_277
*5667 FILLER_0_140_289
*5668 FILLER_0_140_29
*5669 FILLER_0_140_3
*5670 FILLER_0_140_301
*5671 FILLER_0_140_307
*5672 FILLER_0_140_309
*5673 FILLER_0_140_321
*5674 FILLER_0_140_333
*5675 FILLER_0_140_345
*5676 FILLER_0_140_357
*5677 FILLER_0_140_363
*5678 FILLER_0_140_365
*5679 FILLER_0_140_377
*5680 FILLER_0_140_389
*5681 FILLER_0_140_401
*5682 FILLER_0_140_41
*5683 FILLER_0_140_413
*5684 FILLER_0_140_419
*5685 FILLER_0_140_421
*5686 FILLER_0_140_433
*5687 FILLER_0_140_445
*5688 FILLER_0_140_457
*5689 FILLER_0_140_469
*5690 FILLER_0_140_475
*5691 FILLER_0_140_477
*5692 FILLER_0_140_489
*5693 FILLER_0_140_501
*5694 FILLER_0_140_513
*5695 FILLER_0_140_525
*5696 FILLER_0_140_53
*5697 FILLER_0_140_531
*5698 FILLER_0_140_533
*5699 FILLER_0_140_545
*5700 FILLER_0_140_557
*5701 FILLER_0_140_569
*5702 FILLER_0_140_581
*5703 FILLER_0_140_587
*5704 FILLER_0_140_589
*5705 FILLER_0_140_601
*5706 FILLER_0_140_613
*5707 FILLER_0_140_625
*5708 FILLER_0_140_637
*5709 FILLER_0_140_643
*5710 FILLER_0_140_645
*5711 FILLER_0_140_65
*5712 FILLER_0_140_657
*5713 FILLER_0_140_669
*5714 FILLER_0_140_681
*5715 FILLER_0_140_693
*5716 FILLER_0_140_699
*5717 FILLER_0_140_701
*5718 FILLER_0_140_713
*5719 FILLER_0_140_725
*5720 FILLER_0_140_737
*5721 FILLER_0_140_749
*5722 FILLER_0_140_755
*5723 FILLER_0_140_757
*5724 FILLER_0_140_769
*5725 FILLER_0_140_77
*5726 FILLER_0_140_781
*5727 FILLER_0_140_793
*5728 FILLER_0_140_805
*5729 FILLER_0_140_811
*5730 FILLER_0_140_813
*5731 FILLER_0_140_825
*5732 FILLER_0_140_83
*5733 FILLER_0_140_837
*5734 FILLER_0_140_849
*5735 FILLER_0_140_85
*5736 FILLER_0_140_861
*5737 FILLER_0_140_867
*5738 FILLER_0_140_869
*5739 FILLER_0_140_881
*5740 FILLER_0_140_893
*5741 FILLER_0_140_905
*5742 FILLER_0_140_917
*5743 FILLER_0_140_923
*5744 FILLER_0_140_925
*5745 FILLER_0_140_937
*5746 FILLER_0_140_949
*5747 FILLER_0_140_961
*5748 FILLER_0_140_97
*5749 FILLER_0_140_973
*5750 FILLER_0_140_979
*5751 FILLER_0_140_981
*5752 FILLER_0_140_993
*5753 FILLER_0_141_1001
*5754 FILLER_0_141_1007
*5755 FILLER_0_141_1009
*5756 FILLER_0_141_1021
*5757 FILLER_0_141_1033
*5758 FILLER_0_141_1045
*5759 FILLER_0_141_105
*5760 FILLER_0_141_1057
*5761 FILLER_0_141_111
*5762 FILLER_0_141_113
*5763 FILLER_0_141_125
*5764 FILLER_0_141_137
*5765 FILLER_0_141_149
*5766 FILLER_0_141_15
*5767 FILLER_0_141_161
*5768 FILLER_0_141_167
*5769 FILLER_0_141_169
*5770 FILLER_0_141_181
*5771 FILLER_0_141_193
*5772 FILLER_0_141_205
*5773 FILLER_0_141_217
*5774 FILLER_0_141_223
*5775 FILLER_0_141_225
*5776 FILLER_0_141_237
*5777 FILLER_0_141_249
*5778 FILLER_0_141_261
*5779 FILLER_0_141_27
*5780 FILLER_0_141_273
*5781 FILLER_0_141_279
*5782 FILLER_0_141_281
*5783 FILLER_0_141_293
*5784 FILLER_0_141_3
*5785 FILLER_0_141_305
*5786 FILLER_0_141_317
*5787 FILLER_0_141_329
*5788 FILLER_0_141_335
*5789 FILLER_0_141_337
*5790 FILLER_0_141_349
*5791 FILLER_0_141_361
*5792 FILLER_0_141_373
*5793 FILLER_0_141_385
*5794 FILLER_0_141_39
*5795 FILLER_0_141_391
*5796 FILLER_0_141_393
*5797 FILLER_0_141_405
*5798 FILLER_0_141_417
*5799 FILLER_0_141_429
*5800 FILLER_0_141_441
*5801 FILLER_0_141_447
*5802 FILLER_0_141_449
*5803 FILLER_0_141_461
*5804 FILLER_0_141_473
*5805 FILLER_0_141_485
*5806 FILLER_0_141_497
*5807 FILLER_0_141_503
*5808 FILLER_0_141_505
*5809 FILLER_0_141_51
*5810 FILLER_0_141_517
*5811 FILLER_0_141_529
*5812 FILLER_0_141_541
*5813 FILLER_0_141_55
*5814 FILLER_0_141_553
*5815 FILLER_0_141_559
*5816 FILLER_0_141_561
*5817 FILLER_0_141_57
*5818 FILLER_0_141_573
*5819 FILLER_0_141_585
*5820 FILLER_0_141_597
*5821 FILLER_0_141_609
*5822 FILLER_0_141_615
*5823 FILLER_0_141_617
*5824 FILLER_0_141_629
*5825 FILLER_0_141_641
*5826 FILLER_0_141_653
*5827 FILLER_0_141_665
*5828 FILLER_0_141_671
*5829 FILLER_0_141_673
*5830 FILLER_0_141_685
*5831 FILLER_0_141_69
*5832 FILLER_0_141_697
*5833 FILLER_0_141_709
*5834 FILLER_0_141_721
*5835 FILLER_0_141_727
*5836 FILLER_0_141_729
*5837 FILLER_0_141_741
*5838 FILLER_0_141_753
*5839 FILLER_0_141_765
*5840 FILLER_0_141_777
*5841 FILLER_0_141_783
*5842 FILLER_0_141_785
*5843 FILLER_0_141_797
*5844 FILLER_0_141_809
*5845 FILLER_0_141_81
*5846 FILLER_0_141_821
*5847 FILLER_0_141_833
*5848 FILLER_0_141_839
*5849 FILLER_0_141_841
*5850 FILLER_0_141_853
*5851 FILLER_0_141_865
*5852 FILLER_0_141_877
*5853 FILLER_0_141_889
*5854 FILLER_0_141_895
*5855 FILLER_0_141_897
*5856 FILLER_0_141_909
*5857 FILLER_0_141_921
*5858 FILLER_0_141_93
*5859 FILLER_0_141_933
*5860 FILLER_0_141_945
*5861 FILLER_0_141_951
*5862 FILLER_0_141_953
*5863 FILLER_0_141_965
*5864 FILLER_0_141_977
*5865 FILLER_0_141_989
*5866 FILLER_0_142_1005
*5867 FILLER_0_142_1017
*5868 FILLER_0_142_1029
*5869 FILLER_0_142_1035
*5870 FILLER_0_142_1037
*5871 FILLER_0_142_1049
*5872 FILLER_0_142_1057
*5873 FILLER_0_142_109
*5874 FILLER_0_142_121
*5875 FILLER_0_142_133
*5876 FILLER_0_142_139
*5877 FILLER_0_142_141
*5878 FILLER_0_142_15
*5879 FILLER_0_142_153
*5880 FILLER_0_142_165
*5881 FILLER_0_142_177
*5882 FILLER_0_142_189
*5883 FILLER_0_142_195
*5884 FILLER_0_142_197
*5885 FILLER_0_142_209
*5886 FILLER_0_142_221
*5887 FILLER_0_142_233
*5888 FILLER_0_142_245
*5889 FILLER_0_142_251
*5890 FILLER_0_142_253
*5891 FILLER_0_142_265
*5892 FILLER_0_142_27
*5893 FILLER_0_142_277
*5894 FILLER_0_142_289
*5895 FILLER_0_142_29
*5896 FILLER_0_142_3
*5897 FILLER_0_142_301
*5898 FILLER_0_142_307
*5899 FILLER_0_142_309
*5900 FILLER_0_142_321
*5901 FILLER_0_142_333
*5902 FILLER_0_142_345
*5903 FILLER_0_142_357
*5904 FILLER_0_142_363
*5905 FILLER_0_142_365
*5906 FILLER_0_142_377
*5907 FILLER_0_142_389
*5908 FILLER_0_142_401
*5909 FILLER_0_142_41
*5910 FILLER_0_142_413
*5911 FILLER_0_142_419
*5912 FILLER_0_142_421
*5913 FILLER_0_142_433
*5914 FILLER_0_142_445
*5915 FILLER_0_142_457
*5916 FILLER_0_142_469
*5917 FILLER_0_142_475
*5918 FILLER_0_142_477
*5919 FILLER_0_142_489
*5920 FILLER_0_142_501
*5921 FILLER_0_142_513
*5922 FILLER_0_142_525
*5923 FILLER_0_142_53
*5924 FILLER_0_142_531
*5925 FILLER_0_142_533
*5926 FILLER_0_142_545
*5927 FILLER_0_142_557
*5928 FILLER_0_142_569
*5929 FILLER_0_142_581
*5930 FILLER_0_142_587
*5931 FILLER_0_142_589
*5932 FILLER_0_142_601
*5933 FILLER_0_142_613
*5934 FILLER_0_142_625
*5935 FILLER_0_142_637
*5936 FILLER_0_142_643
*5937 FILLER_0_142_645
*5938 FILLER_0_142_65
*5939 FILLER_0_142_657
*5940 FILLER_0_142_669
*5941 FILLER_0_142_681
*5942 FILLER_0_142_693
*5943 FILLER_0_142_699
*5944 FILLER_0_142_701
*5945 FILLER_0_142_713
*5946 FILLER_0_142_725
*5947 FILLER_0_142_737
*5948 FILLER_0_142_749
*5949 FILLER_0_142_755
*5950 FILLER_0_142_757
*5951 FILLER_0_142_769
*5952 FILLER_0_142_77
*5953 FILLER_0_142_781
*5954 FILLER_0_142_793
*5955 FILLER_0_142_805
*5956 FILLER_0_142_811
*5957 FILLER_0_142_813
*5958 FILLER_0_142_825
*5959 FILLER_0_142_83
*5960 FILLER_0_142_837
*5961 FILLER_0_142_849
*5962 FILLER_0_142_85
*5963 FILLER_0_142_861
*5964 FILLER_0_142_867
*5965 FILLER_0_142_869
*5966 FILLER_0_142_881
*5967 FILLER_0_142_893
*5968 FILLER_0_142_905
*5969 FILLER_0_142_917
*5970 FILLER_0_142_923
*5971 FILLER_0_142_925
*5972 FILLER_0_142_937
*5973 FILLER_0_142_949
*5974 FILLER_0_142_961
*5975 FILLER_0_142_97
*5976 FILLER_0_142_973
*5977 FILLER_0_142_979
*5978 FILLER_0_142_981
*5979 FILLER_0_142_993
*5980 FILLER_0_143_1001
*5981 FILLER_0_143_1007
*5982 FILLER_0_143_1009
*5983 FILLER_0_143_1021
*5984 FILLER_0_143_1033
*5985 FILLER_0_143_1045
*5986 FILLER_0_143_105
*5987 FILLER_0_143_1057
*5988 FILLER_0_143_111
*5989 FILLER_0_143_113
*5990 FILLER_0_143_125
*5991 FILLER_0_143_137
*5992 FILLER_0_143_149
*5993 FILLER_0_143_161
*5994 FILLER_0_143_167
*5995 FILLER_0_143_169
*5996 FILLER_0_143_18
*5997 FILLER_0_143_181
*5998 FILLER_0_143_193
*5999 FILLER_0_143_205
*6000 FILLER_0_143_217
*6001 FILLER_0_143_223
*6002 FILLER_0_143_225
*6003 FILLER_0_143_237
*6004 FILLER_0_143_249
*6005 FILLER_0_143_261
*6006 FILLER_0_143_273
*6007 FILLER_0_143_279
*6008 FILLER_0_143_281
*6009 FILLER_0_143_293
*6010 FILLER_0_143_30
*6011 FILLER_0_143_305
*6012 FILLER_0_143_317
*6013 FILLER_0_143_329
*6014 FILLER_0_143_335
*6015 FILLER_0_143_337
*6016 FILLER_0_143_349
*6017 FILLER_0_143_361
*6018 FILLER_0_143_373
*6019 FILLER_0_143_385
*6020 FILLER_0_143_391
*6021 FILLER_0_143_393
*6022 FILLER_0_143_405
*6023 FILLER_0_143_417
*6024 FILLER_0_143_42
*6025 FILLER_0_143_429
*6026 FILLER_0_143_441
*6027 FILLER_0_143_447
*6028 FILLER_0_143_449
*6029 FILLER_0_143_461
*6030 FILLER_0_143_473
*6031 FILLER_0_143_485
*6032 FILLER_0_143_497
*6033 FILLER_0_143_503
*6034 FILLER_0_143_505
*6035 FILLER_0_143_517
*6036 FILLER_0_143_529
*6037 FILLER_0_143_54
*6038 FILLER_0_143_541
*6039 FILLER_0_143_553
*6040 FILLER_0_143_559
*6041 FILLER_0_143_561
*6042 FILLER_0_143_57
*6043 FILLER_0_143_573
*6044 FILLER_0_143_585
*6045 FILLER_0_143_597
*6046 FILLER_0_143_6
*6047 FILLER_0_143_609
*6048 FILLER_0_143_615
*6049 FILLER_0_143_617
*6050 FILLER_0_143_629
*6051 FILLER_0_143_641
*6052 FILLER_0_143_653
*6053 FILLER_0_143_665
*6054 FILLER_0_143_671
*6055 FILLER_0_143_673
*6056 FILLER_0_143_685
*6057 FILLER_0_143_69
*6058 FILLER_0_143_697
*6059 FILLER_0_143_709
*6060 FILLER_0_143_721
*6061 FILLER_0_143_727
*6062 FILLER_0_143_729
*6063 FILLER_0_143_741
*6064 FILLER_0_143_753
*6065 FILLER_0_143_765
*6066 FILLER_0_143_777
*6067 FILLER_0_143_783
*6068 FILLER_0_143_785
*6069 FILLER_0_143_797
*6070 FILLER_0_143_809
*6071 FILLER_0_143_81
*6072 FILLER_0_143_821
*6073 FILLER_0_143_833
*6074 FILLER_0_143_839
*6075 FILLER_0_143_841
*6076 FILLER_0_143_853
*6077 FILLER_0_143_865
*6078 FILLER_0_143_877
*6079 FILLER_0_143_889
*6080 FILLER_0_143_895
*6081 FILLER_0_143_897
*6082 FILLER_0_143_909
*6083 FILLER_0_143_921
*6084 FILLER_0_143_93
*6085 FILLER_0_143_933
*6086 FILLER_0_143_945
*6087 FILLER_0_143_951
*6088 FILLER_0_143_953
*6089 FILLER_0_143_965
*6090 FILLER_0_143_977
*6091 FILLER_0_143_989
*6092 FILLER_0_144_1005
*6093 FILLER_0_144_1017
*6094 FILLER_0_144_1029
*6095 FILLER_0_144_1035
*6096 FILLER_0_144_1037
*6097 FILLER_0_144_1049
*6098 FILLER_0_144_1057
*6099 FILLER_0_144_109
*6100 FILLER_0_144_121
*6101 FILLER_0_144_133
*6102 FILLER_0_144_139
*6103 FILLER_0_144_141
*6104 FILLER_0_144_15
*6105 FILLER_0_144_153
*6106 FILLER_0_144_165
*6107 FILLER_0_144_177
*6108 FILLER_0_144_189
*6109 FILLER_0_144_195
*6110 FILLER_0_144_197
*6111 FILLER_0_144_209
*6112 FILLER_0_144_221
*6113 FILLER_0_144_233
*6114 FILLER_0_144_245
*6115 FILLER_0_144_251
*6116 FILLER_0_144_253
*6117 FILLER_0_144_265
*6118 FILLER_0_144_27
*6119 FILLER_0_144_277
*6120 FILLER_0_144_289
*6121 FILLER_0_144_29
*6122 FILLER_0_144_3
*6123 FILLER_0_144_301
*6124 FILLER_0_144_307
*6125 FILLER_0_144_309
*6126 FILLER_0_144_321
*6127 FILLER_0_144_333
*6128 FILLER_0_144_345
*6129 FILLER_0_144_357
*6130 FILLER_0_144_363
*6131 FILLER_0_144_365
*6132 FILLER_0_144_377
*6133 FILLER_0_144_389
*6134 FILLER_0_144_401
*6135 FILLER_0_144_41
*6136 FILLER_0_144_413
*6137 FILLER_0_144_419
*6138 FILLER_0_144_421
*6139 FILLER_0_144_433
*6140 FILLER_0_144_445
*6141 FILLER_0_144_457
*6142 FILLER_0_144_469
*6143 FILLER_0_144_475
*6144 FILLER_0_144_477
*6145 FILLER_0_144_489
*6146 FILLER_0_144_501
*6147 FILLER_0_144_513
*6148 FILLER_0_144_525
*6149 FILLER_0_144_53
*6150 FILLER_0_144_531
*6151 FILLER_0_144_533
*6152 FILLER_0_144_545
*6153 FILLER_0_144_557
*6154 FILLER_0_144_569
*6155 FILLER_0_144_581
*6156 FILLER_0_144_587
*6157 FILLER_0_144_589
*6158 FILLER_0_144_601
*6159 FILLER_0_144_613
*6160 FILLER_0_144_625
*6161 FILLER_0_144_637
*6162 FILLER_0_144_643
*6163 FILLER_0_144_645
*6164 FILLER_0_144_65
*6165 FILLER_0_144_657
*6166 FILLER_0_144_669
*6167 FILLER_0_144_681
*6168 FILLER_0_144_693
*6169 FILLER_0_144_699
*6170 FILLER_0_144_701
*6171 FILLER_0_144_713
*6172 FILLER_0_144_725
*6173 FILLER_0_144_737
*6174 FILLER_0_144_749
*6175 FILLER_0_144_755
*6176 FILLER_0_144_757
*6177 FILLER_0_144_769
*6178 FILLER_0_144_77
*6179 FILLER_0_144_781
*6180 FILLER_0_144_793
*6181 FILLER_0_144_805
*6182 FILLER_0_144_811
*6183 FILLER_0_144_813
*6184 FILLER_0_144_825
*6185 FILLER_0_144_83
*6186 FILLER_0_144_837
*6187 FILLER_0_144_849
*6188 FILLER_0_144_85
*6189 FILLER_0_144_861
*6190 FILLER_0_144_867
*6191 FILLER_0_144_869
*6192 FILLER_0_144_881
*6193 FILLER_0_144_893
*6194 FILLER_0_144_905
*6195 FILLER_0_144_917
*6196 FILLER_0_144_923
*6197 FILLER_0_144_925
*6198 FILLER_0_144_937
*6199 FILLER_0_144_949
*6200 FILLER_0_144_961
*6201 FILLER_0_144_97
*6202 FILLER_0_144_973
*6203 FILLER_0_144_979
*6204 FILLER_0_144_981
*6205 FILLER_0_144_993
*6206 FILLER_0_145_1001
*6207 FILLER_0_145_1007
*6208 FILLER_0_145_1009
*6209 FILLER_0_145_1021
*6210 FILLER_0_145_1033
*6211 FILLER_0_145_1045
*6212 FILLER_0_145_105
*6213 FILLER_0_145_1057
*6214 FILLER_0_145_111
*6215 FILLER_0_145_113
*6216 FILLER_0_145_125
*6217 FILLER_0_145_137
*6218 FILLER_0_145_149
*6219 FILLER_0_145_15
*6220 FILLER_0_145_161
*6221 FILLER_0_145_167
*6222 FILLER_0_145_169
*6223 FILLER_0_145_181
*6224 FILLER_0_145_193
*6225 FILLER_0_145_205
*6226 FILLER_0_145_217
*6227 FILLER_0_145_223
*6228 FILLER_0_145_225
*6229 FILLER_0_145_237
*6230 FILLER_0_145_249
*6231 FILLER_0_145_261
*6232 FILLER_0_145_27
*6233 FILLER_0_145_273
*6234 FILLER_0_145_279
*6235 FILLER_0_145_281
*6236 FILLER_0_145_293
*6237 FILLER_0_145_3
*6238 FILLER_0_145_305
*6239 FILLER_0_145_317
*6240 FILLER_0_145_329
*6241 FILLER_0_145_335
*6242 FILLER_0_145_337
*6243 FILLER_0_145_349
*6244 FILLER_0_145_361
*6245 FILLER_0_145_373
*6246 FILLER_0_145_385
*6247 FILLER_0_145_39
*6248 FILLER_0_145_391
*6249 FILLER_0_145_393
*6250 FILLER_0_145_405
*6251 FILLER_0_145_417
*6252 FILLER_0_145_429
*6253 FILLER_0_145_441
*6254 FILLER_0_145_447
*6255 FILLER_0_145_449
*6256 FILLER_0_145_461
*6257 FILLER_0_145_473
*6258 FILLER_0_145_485
*6259 FILLER_0_145_497
*6260 FILLER_0_145_503
*6261 FILLER_0_145_505
*6262 FILLER_0_145_51
*6263 FILLER_0_145_517
*6264 FILLER_0_145_529
*6265 FILLER_0_145_541
*6266 FILLER_0_145_55
*6267 FILLER_0_145_553
*6268 FILLER_0_145_559
*6269 FILLER_0_145_561
*6270 FILLER_0_145_57
*6271 FILLER_0_145_573
*6272 FILLER_0_145_585
*6273 FILLER_0_145_597
*6274 FILLER_0_145_609
*6275 FILLER_0_145_615
*6276 FILLER_0_145_617
*6277 FILLER_0_145_629
*6278 FILLER_0_145_641
*6279 FILLER_0_145_653
*6280 FILLER_0_145_665
*6281 FILLER_0_145_671
*6282 FILLER_0_145_673
*6283 FILLER_0_145_685
*6284 FILLER_0_145_69
*6285 FILLER_0_145_697
*6286 FILLER_0_145_709
*6287 FILLER_0_145_721
*6288 FILLER_0_145_727
*6289 FILLER_0_145_729
*6290 FILLER_0_145_741
*6291 FILLER_0_145_753
*6292 FILLER_0_145_765
*6293 FILLER_0_145_777
*6294 FILLER_0_145_783
*6295 FILLER_0_145_785
*6296 FILLER_0_145_797
*6297 FILLER_0_145_809
*6298 FILLER_0_145_81
*6299 FILLER_0_145_821
*6300 FILLER_0_145_833
*6301 FILLER_0_145_839
*6302 FILLER_0_145_841
*6303 FILLER_0_145_853
*6304 FILLER_0_145_865
*6305 FILLER_0_145_877
*6306 FILLER_0_145_889
*6307 FILLER_0_145_895
*6308 FILLER_0_145_897
*6309 FILLER_0_145_909
*6310 FILLER_0_145_921
*6311 FILLER_0_145_93
*6312 FILLER_0_145_933
*6313 FILLER_0_145_945
*6314 FILLER_0_145_951
*6315 FILLER_0_145_953
*6316 FILLER_0_145_965
*6317 FILLER_0_145_977
*6318 FILLER_0_145_989
*6319 FILLER_0_146_1005
*6320 FILLER_0_146_1017
*6321 FILLER_0_146_1029
*6322 FILLER_0_146_1035
*6323 FILLER_0_146_1037
*6324 FILLER_0_146_1049
*6325 FILLER_0_146_1057
*6326 FILLER_0_146_109
*6327 FILLER_0_146_121
*6328 FILLER_0_146_133
*6329 FILLER_0_146_139
*6330 FILLER_0_146_141
*6331 FILLER_0_146_15
*6332 FILLER_0_146_153
*6333 FILLER_0_146_165
*6334 FILLER_0_146_177
*6335 FILLER_0_146_189
*6336 FILLER_0_146_195
*6337 FILLER_0_146_197
*6338 FILLER_0_146_209
*6339 FILLER_0_146_221
*6340 FILLER_0_146_233
*6341 FILLER_0_146_245
*6342 FILLER_0_146_251
*6343 FILLER_0_146_253
*6344 FILLER_0_146_265
*6345 FILLER_0_146_27
*6346 FILLER_0_146_277
*6347 FILLER_0_146_289
*6348 FILLER_0_146_29
*6349 FILLER_0_146_3
*6350 FILLER_0_146_301
*6351 FILLER_0_146_307
*6352 FILLER_0_146_309
*6353 FILLER_0_146_321
*6354 FILLER_0_146_333
*6355 FILLER_0_146_345
*6356 FILLER_0_146_357
*6357 FILLER_0_146_363
*6358 FILLER_0_146_365
*6359 FILLER_0_146_377
*6360 FILLER_0_146_389
*6361 FILLER_0_146_401
*6362 FILLER_0_146_41
*6363 FILLER_0_146_413
*6364 FILLER_0_146_419
*6365 FILLER_0_146_421
*6366 FILLER_0_146_433
*6367 FILLER_0_146_445
*6368 FILLER_0_146_457
*6369 FILLER_0_146_469
*6370 FILLER_0_146_475
*6371 FILLER_0_146_477
*6372 FILLER_0_146_489
*6373 FILLER_0_146_501
*6374 FILLER_0_146_513
*6375 FILLER_0_146_525
*6376 FILLER_0_146_53
*6377 FILLER_0_146_531
*6378 FILLER_0_146_533
*6379 FILLER_0_146_545
*6380 FILLER_0_146_557
*6381 FILLER_0_146_569
*6382 FILLER_0_146_581
*6383 FILLER_0_146_587
*6384 FILLER_0_146_589
*6385 FILLER_0_146_601
*6386 FILLER_0_146_613
*6387 FILLER_0_146_625
*6388 FILLER_0_146_637
*6389 FILLER_0_146_643
*6390 FILLER_0_146_645
*6391 FILLER_0_146_65
*6392 FILLER_0_146_657
*6393 FILLER_0_146_669
*6394 FILLER_0_146_681
*6395 FILLER_0_146_693
*6396 FILLER_0_146_699
*6397 FILLER_0_146_701
*6398 FILLER_0_146_713
*6399 FILLER_0_146_725
*6400 FILLER_0_146_737
*6401 FILLER_0_146_749
*6402 FILLER_0_146_755
*6403 FILLER_0_146_757
*6404 FILLER_0_146_769
*6405 FILLER_0_146_77
*6406 FILLER_0_146_781
*6407 FILLER_0_146_793
*6408 FILLER_0_146_805
*6409 FILLER_0_146_811
*6410 FILLER_0_146_813
*6411 FILLER_0_146_825
*6412 FILLER_0_146_83
*6413 FILLER_0_146_837
*6414 FILLER_0_146_849
*6415 FILLER_0_146_85
*6416 FILLER_0_146_861
*6417 FILLER_0_146_867
*6418 FILLER_0_146_869
*6419 FILLER_0_146_881
*6420 FILLER_0_146_893
*6421 FILLER_0_146_905
*6422 FILLER_0_146_917
*6423 FILLER_0_146_923
*6424 FILLER_0_146_925
*6425 FILLER_0_146_937
*6426 FILLER_0_146_949
*6427 FILLER_0_146_961
*6428 FILLER_0_146_97
*6429 FILLER_0_146_973
*6430 FILLER_0_146_979
*6431 FILLER_0_146_981
*6432 FILLER_0_146_993
*6433 FILLER_0_147_1001
*6434 FILLER_0_147_1007
*6435 FILLER_0_147_1009
*6436 FILLER_0_147_1021
*6437 FILLER_0_147_1033
*6438 FILLER_0_147_1045
*6439 FILLER_0_147_105
*6440 FILLER_0_147_1057
*6441 FILLER_0_147_111
*6442 FILLER_0_147_113
*6443 FILLER_0_147_125
*6444 FILLER_0_147_137
*6445 FILLER_0_147_149
*6446 FILLER_0_147_15
*6447 FILLER_0_147_161
*6448 FILLER_0_147_167
*6449 FILLER_0_147_169
*6450 FILLER_0_147_181
*6451 FILLER_0_147_193
*6452 FILLER_0_147_205
*6453 FILLER_0_147_217
*6454 FILLER_0_147_223
*6455 FILLER_0_147_225
*6456 FILLER_0_147_237
*6457 FILLER_0_147_249
*6458 FILLER_0_147_261
*6459 FILLER_0_147_27
*6460 FILLER_0_147_273
*6461 FILLER_0_147_279
*6462 FILLER_0_147_281
*6463 FILLER_0_147_293
*6464 FILLER_0_147_3
*6465 FILLER_0_147_305
*6466 FILLER_0_147_317
*6467 FILLER_0_147_329
*6468 FILLER_0_147_335
*6469 FILLER_0_147_337
*6470 FILLER_0_147_349
*6471 FILLER_0_147_361
*6472 FILLER_0_147_373
*6473 FILLER_0_147_385
*6474 FILLER_0_147_39
*6475 FILLER_0_147_391
*6476 FILLER_0_147_393
*6477 FILLER_0_147_405
*6478 FILLER_0_147_417
*6479 FILLER_0_147_429
*6480 FILLER_0_147_441
*6481 FILLER_0_147_447
*6482 FILLER_0_147_449
*6483 FILLER_0_147_461
*6484 FILLER_0_147_473
*6485 FILLER_0_147_485
*6486 FILLER_0_147_497
*6487 FILLER_0_147_503
*6488 FILLER_0_147_505
*6489 FILLER_0_147_51
*6490 FILLER_0_147_517
*6491 FILLER_0_147_529
*6492 FILLER_0_147_541
*6493 FILLER_0_147_55
*6494 FILLER_0_147_553
*6495 FILLER_0_147_559
*6496 FILLER_0_147_561
*6497 FILLER_0_147_57
*6498 FILLER_0_147_573
*6499 FILLER_0_147_585
*6500 FILLER_0_147_597
*6501 FILLER_0_147_609
*6502 FILLER_0_147_615
*6503 FILLER_0_147_617
*6504 FILLER_0_147_629
*6505 FILLER_0_147_641
*6506 FILLER_0_147_653
*6507 FILLER_0_147_665
*6508 FILLER_0_147_671
*6509 FILLER_0_147_673
*6510 FILLER_0_147_685
*6511 FILLER_0_147_69
*6512 FILLER_0_147_697
*6513 FILLER_0_147_709
*6514 FILLER_0_147_721
*6515 FILLER_0_147_727
*6516 FILLER_0_147_729
*6517 FILLER_0_147_741
*6518 FILLER_0_147_753
*6519 FILLER_0_147_765
*6520 FILLER_0_147_777
*6521 FILLER_0_147_783
*6522 FILLER_0_147_785
*6523 FILLER_0_147_797
*6524 FILLER_0_147_809
*6525 FILLER_0_147_81
*6526 FILLER_0_147_821
*6527 FILLER_0_147_833
*6528 FILLER_0_147_839
*6529 FILLER_0_147_841
*6530 FILLER_0_147_853
*6531 FILLER_0_147_865
*6532 FILLER_0_147_877
*6533 FILLER_0_147_889
*6534 FILLER_0_147_895
*6535 FILLER_0_147_897
*6536 FILLER_0_147_909
*6537 FILLER_0_147_921
*6538 FILLER_0_147_93
*6539 FILLER_0_147_933
*6540 FILLER_0_147_945
*6541 FILLER_0_147_951
*6542 FILLER_0_147_953
*6543 FILLER_0_147_965
*6544 FILLER_0_147_977
*6545 FILLER_0_147_989
*6546 FILLER_0_148_1005
*6547 FILLER_0_148_1017
*6548 FILLER_0_148_1029
*6549 FILLER_0_148_1035
*6550 FILLER_0_148_1037
*6551 FILLER_0_148_1049
*6552 FILLER_0_148_1057
*6553 FILLER_0_148_109
*6554 FILLER_0_148_121
*6555 FILLER_0_148_133
*6556 FILLER_0_148_139
*6557 FILLER_0_148_141
*6558 FILLER_0_148_15
*6559 FILLER_0_148_153
*6560 FILLER_0_148_165
*6561 FILLER_0_148_177
*6562 FILLER_0_148_189
*6563 FILLER_0_148_195
*6564 FILLER_0_148_197
*6565 FILLER_0_148_209
*6566 FILLER_0_148_221
*6567 FILLER_0_148_233
*6568 FILLER_0_148_245
*6569 FILLER_0_148_251
*6570 FILLER_0_148_253
*6571 FILLER_0_148_265
*6572 FILLER_0_148_27
*6573 FILLER_0_148_277
*6574 FILLER_0_148_289
*6575 FILLER_0_148_29
*6576 FILLER_0_148_3
*6577 FILLER_0_148_301
*6578 FILLER_0_148_307
*6579 FILLER_0_148_309
*6580 FILLER_0_148_321
*6581 FILLER_0_148_333
*6582 FILLER_0_148_345
*6583 FILLER_0_148_357
*6584 FILLER_0_148_363
*6585 FILLER_0_148_365
*6586 FILLER_0_148_377
*6587 FILLER_0_148_389
*6588 FILLER_0_148_401
*6589 FILLER_0_148_41
*6590 FILLER_0_148_413
*6591 FILLER_0_148_419
*6592 FILLER_0_148_421
*6593 FILLER_0_148_433
*6594 FILLER_0_148_445
*6595 FILLER_0_148_457
*6596 FILLER_0_148_469
*6597 FILLER_0_148_475
*6598 FILLER_0_148_477
*6599 FILLER_0_148_489
*6600 FILLER_0_148_501
*6601 FILLER_0_148_513
*6602 FILLER_0_148_525
*6603 FILLER_0_148_53
*6604 FILLER_0_148_531
*6605 FILLER_0_148_533
*6606 FILLER_0_148_545
*6607 FILLER_0_148_557
*6608 FILLER_0_148_569
*6609 FILLER_0_148_581
*6610 FILLER_0_148_587
*6611 FILLER_0_148_589
*6612 FILLER_0_148_601
*6613 FILLER_0_148_613
*6614 FILLER_0_148_625
*6615 FILLER_0_148_637
*6616 FILLER_0_148_643
*6617 FILLER_0_148_645
*6618 FILLER_0_148_65
*6619 FILLER_0_148_657
*6620 FILLER_0_148_669
*6621 FILLER_0_148_681
*6622 FILLER_0_148_693
*6623 FILLER_0_148_699
*6624 FILLER_0_148_701
*6625 FILLER_0_148_713
*6626 FILLER_0_148_725
*6627 FILLER_0_148_737
*6628 FILLER_0_148_749
*6629 FILLER_0_148_755
*6630 FILLER_0_148_757
*6631 FILLER_0_148_769
*6632 FILLER_0_148_77
*6633 FILLER_0_148_781
*6634 FILLER_0_148_793
*6635 FILLER_0_148_805
*6636 FILLER_0_148_811
*6637 FILLER_0_148_813
*6638 FILLER_0_148_825
*6639 FILLER_0_148_83
*6640 FILLER_0_148_837
*6641 FILLER_0_148_849
*6642 FILLER_0_148_85
*6643 FILLER_0_148_861
*6644 FILLER_0_148_867
*6645 FILLER_0_148_869
*6646 FILLER_0_148_881
*6647 FILLER_0_148_893
*6648 FILLER_0_148_905
*6649 FILLER_0_148_917
*6650 FILLER_0_148_923
*6651 FILLER_0_148_925
*6652 FILLER_0_148_937
*6653 FILLER_0_148_949
*6654 FILLER_0_148_961
*6655 FILLER_0_148_97
*6656 FILLER_0_148_973
*6657 FILLER_0_148_979
*6658 FILLER_0_148_981
*6659 FILLER_0_148_993
*6660 FILLER_0_149_1001
*6661 FILLER_0_149_1007
*6662 FILLER_0_149_1009
*6663 FILLER_0_149_1021
*6664 FILLER_0_149_1033
*6665 FILLER_0_149_1045
*6666 FILLER_0_149_105
*6667 FILLER_0_149_1057
*6668 FILLER_0_149_111
*6669 FILLER_0_149_113
*6670 FILLER_0_149_125
*6671 FILLER_0_149_137
*6672 FILLER_0_149_149
*6673 FILLER_0_149_15
*6674 FILLER_0_149_161
*6675 FILLER_0_149_167
*6676 FILLER_0_149_169
*6677 FILLER_0_149_181
*6678 FILLER_0_149_193
*6679 FILLER_0_149_205
*6680 FILLER_0_149_217
*6681 FILLER_0_149_223
*6682 FILLER_0_149_225
*6683 FILLER_0_149_237
*6684 FILLER_0_149_249
*6685 FILLER_0_149_261
*6686 FILLER_0_149_27
*6687 FILLER_0_149_273
*6688 FILLER_0_149_279
*6689 FILLER_0_149_281
*6690 FILLER_0_149_293
*6691 FILLER_0_149_3
*6692 FILLER_0_149_305
*6693 FILLER_0_149_317
*6694 FILLER_0_149_329
*6695 FILLER_0_149_335
*6696 FILLER_0_149_337
*6697 FILLER_0_149_349
*6698 FILLER_0_149_361
*6699 FILLER_0_149_373
*6700 FILLER_0_149_385
*6701 FILLER_0_149_39
*6702 FILLER_0_149_391
*6703 FILLER_0_149_393
*6704 FILLER_0_149_405
*6705 FILLER_0_149_417
*6706 FILLER_0_149_429
*6707 FILLER_0_149_441
*6708 FILLER_0_149_447
*6709 FILLER_0_149_449
*6710 FILLER_0_149_461
*6711 FILLER_0_149_473
*6712 FILLER_0_149_485
*6713 FILLER_0_149_497
*6714 FILLER_0_149_503
*6715 FILLER_0_149_505
*6716 FILLER_0_149_51
*6717 FILLER_0_149_517
*6718 FILLER_0_149_529
*6719 FILLER_0_149_541
*6720 FILLER_0_149_55
*6721 FILLER_0_149_553
*6722 FILLER_0_149_559
*6723 FILLER_0_149_561
*6724 FILLER_0_149_57
*6725 FILLER_0_149_573
*6726 FILLER_0_149_585
*6727 FILLER_0_149_597
*6728 FILLER_0_149_609
*6729 FILLER_0_149_615
*6730 FILLER_0_149_617
*6731 FILLER_0_149_629
*6732 FILLER_0_149_641
*6733 FILLER_0_149_653
*6734 FILLER_0_149_665
*6735 FILLER_0_149_671
*6736 FILLER_0_149_673
*6737 FILLER_0_149_685
*6738 FILLER_0_149_69
*6739 FILLER_0_149_697
*6740 FILLER_0_149_709
*6741 FILLER_0_149_721
*6742 FILLER_0_149_727
*6743 FILLER_0_149_729
*6744 FILLER_0_149_741
*6745 FILLER_0_149_753
*6746 FILLER_0_149_765
*6747 FILLER_0_149_777
*6748 FILLER_0_149_783
*6749 FILLER_0_149_785
*6750 FILLER_0_149_797
*6751 FILLER_0_149_809
*6752 FILLER_0_149_81
*6753 FILLER_0_149_821
*6754 FILLER_0_149_833
*6755 FILLER_0_149_839
*6756 FILLER_0_149_841
*6757 FILLER_0_149_853
*6758 FILLER_0_149_865
*6759 FILLER_0_149_877
*6760 FILLER_0_149_889
*6761 FILLER_0_149_895
*6762 FILLER_0_149_897
*6763 FILLER_0_149_909
*6764 FILLER_0_149_921
*6765 FILLER_0_149_93
*6766 FILLER_0_149_933
*6767 FILLER_0_149_945
*6768 FILLER_0_149_951
*6769 FILLER_0_149_953
*6770 FILLER_0_149_965
*6771 FILLER_0_149_977
*6772 FILLER_0_149_989
*6773 FILLER_0_14_1005
*6774 FILLER_0_14_1017
*6775 FILLER_0_14_1029
*6776 FILLER_0_14_1035
*6777 FILLER_0_14_1037
*6778 FILLER_0_14_1049
*6779 FILLER_0_14_1057
*6780 FILLER_0_14_109
*6781 FILLER_0_14_121
*6782 FILLER_0_14_133
*6783 FILLER_0_14_139
*6784 FILLER_0_14_141
*6785 FILLER_0_14_15
*6786 FILLER_0_14_153
*6787 FILLER_0_14_165
*6788 FILLER_0_14_177
*6789 FILLER_0_14_189
*6790 FILLER_0_14_195
*6791 FILLER_0_14_197
*6792 FILLER_0_14_209
*6793 FILLER_0_14_221
*6794 FILLER_0_14_233
*6795 FILLER_0_14_245
*6796 FILLER_0_14_251
*6797 FILLER_0_14_253
*6798 FILLER_0_14_265
*6799 FILLER_0_14_27
*6800 FILLER_0_14_277
*6801 FILLER_0_14_289
*6802 FILLER_0_14_29
*6803 FILLER_0_14_3
*6804 FILLER_0_14_301
*6805 FILLER_0_14_307
*6806 FILLER_0_14_309
*6807 FILLER_0_14_321
*6808 FILLER_0_14_333
*6809 FILLER_0_14_345
*6810 FILLER_0_14_357
*6811 FILLER_0_14_363
*6812 FILLER_0_14_365
*6813 FILLER_0_14_377
*6814 FILLER_0_14_389
*6815 FILLER_0_14_401
*6816 FILLER_0_14_41
*6817 FILLER_0_14_413
*6818 FILLER_0_14_419
*6819 FILLER_0_14_421
*6820 FILLER_0_14_433
*6821 FILLER_0_14_445
*6822 FILLER_0_14_457
*6823 FILLER_0_14_469
*6824 FILLER_0_14_475
*6825 FILLER_0_14_477
*6826 FILLER_0_14_489
*6827 FILLER_0_14_501
*6828 FILLER_0_14_513
*6829 FILLER_0_14_525
*6830 FILLER_0_14_53
*6831 FILLER_0_14_531
*6832 FILLER_0_14_533
*6833 FILLER_0_14_545
*6834 FILLER_0_14_557
*6835 FILLER_0_14_569
*6836 FILLER_0_14_581
*6837 FILLER_0_14_587
*6838 FILLER_0_14_589
*6839 FILLER_0_14_601
*6840 FILLER_0_14_613
*6841 FILLER_0_14_625
*6842 FILLER_0_14_637
*6843 FILLER_0_14_643
*6844 FILLER_0_14_645
*6845 FILLER_0_14_65
*6846 FILLER_0_14_657
*6847 FILLER_0_14_669
*6848 FILLER_0_14_681
*6849 FILLER_0_14_693
*6850 FILLER_0_14_699
*6851 FILLER_0_14_701
*6852 FILLER_0_14_713
*6853 FILLER_0_14_725
*6854 FILLER_0_14_737
*6855 FILLER_0_14_749
*6856 FILLER_0_14_755
*6857 FILLER_0_14_757
*6858 FILLER_0_14_769
*6859 FILLER_0_14_77
*6860 FILLER_0_14_781
*6861 FILLER_0_14_793
*6862 FILLER_0_14_805
*6863 FILLER_0_14_811
*6864 FILLER_0_14_813
*6865 FILLER_0_14_825
*6866 FILLER_0_14_83
*6867 FILLER_0_14_837
*6868 FILLER_0_14_849
*6869 FILLER_0_14_85
*6870 FILLER_0_14_861
*6871 FILLER_0_14_867
*6872 FILLER_0_14_869
*6873 FILLER_0_14_881
*6874 FILLER_0_14_893
*6875 FILLER_0_14_905
*6876 FILLER_0_14_917
*6877 FILLER_0_14_923
*6878 FILLER_0_14_925
*6879 FILLER_0_14_937
*6880 FILLER_0_14_949
*6881 FILLER_0_14_961
*6882 FILLER_0_14_97
*6883 FILLER_0_14_973
*6884 FILLER_0_14_979
*6885 FILLER_0_14_981
*6886 FILLER_0_14_993
*6887 FILLER_0_150_1005
*6888 FILLER_0_150_1017
*6889 FILLER_0_150_1029
*6890 FILLER_0_150_1035
*6891 FILLER_0_150_1037
*6892 FILLER_0_150_1049
*6893 FILLER_0_150_1057
*6894 FILLER_0_150_109
*6895 FILLER_0_150_121
*6896 FILLER_0_150_133
*6897 FILLER_0_150_139
*6898 FILLER_0_150_141
*6899 FILLER_0_150_15
*6900 FILLER_0_150_153
*6901 FILLER_0_150_165
*6902 FILLER_0_150_177
*6903 FILLER_0_150_189
*6904 FILLER_0_150_195
*6905 FILLER_0_150_197
*6906 FILLER_0_150_209
*6907 FILLER_0_150_221
*6908 FILLER_0_150_233
*6909 FILLER_0_150_245
*6910 FILLER_0_150_251
*6911 FILLER_0_150_253
*6912 FILLER_0_150_265
*6913 FILLER_0_150_27
*6914 FILLER_0_150_277
*6915 FILLER_0_150_289
*6916 FILLER_0_150_29
*6917 FILLER_0_150_3
*6918 FILLER_0_150_301
*6919 FILLER_0_150_307
*6920 FILLER_0_150_309
*6921 FILLER_0_150_321
*6922 FILLER_0_150_333
*6923 FILLER_0_150_345
*6924 FILLER_0_150_357
*6925 FILLER_0_150_363
*6926 FILLER_0_150_365
*6927 FILLER_0_150_377
*6928 FILLER_0_150_389
*6929 FILLER_0_150_401
*6930 FILLER_0_150_41
*6931 FILLER_0_150_413
*6932 FILLER_0_150_419
*6933 FILLER_0_150_421
*6934 FILLER_0_150_433
*6935 FILLER_0_150_445
*6936 FILLER_0_150_457
*6937 FILLER_0_150_469
*6938 FILLER_0_150_475
*6939 FILLER_0_150_477
*6940 FILLER_0_150_489
*6941 FILLER_0_150_501
*6942 FILLER_0_150_513
*6943 FILLER_0_150_525
*6944 FILLER_0_150_53
*6945 FILLER_0_150_531
*6946 FILLER_0_150_533
*6947 FILLER_0_150_545
*6948 FILLER_0_150_557
*6949 FILLER_0_150_569
*6950 FILLER_0_150_581
*6951 FILLER_0_150_587
*6952 FILLER_0_150_589
*6953 FILLER_0_150_601
*6954 FILLER_0_150_613
*6955 FILLER_0_150_625
*6956 FILLER_0_150_637
*6957 FILLER_0_150_643
*6958 FILLER_0_150_645
*6959 FILLER_0_150_65
*6960 FILLER_0_150_657
*6961 FILLER_0_150_669
*6962 FILLER_0_150_681
*6963 FILLER_0_150_693
*6964 FILLER_0_150_699
*6965 FILLER_0_150_701
*6966 FILLER_0_150_713
*6967 FILLER_0_150_725
*6968 FILLER_0_150_737
*6969 FILLER_0_150_749
*6970 FILLER_0_150_755
*6971 FILLER_0_150_757
*6972 FILLER_0_150_769
*6973 FILLER_0_150_77
*6974 FILLER_0_150_781
*6975 FILLER_0_150_793
*6976 FILLER_0_150_805
*6977 FILLER_0_150_811
*6978 FILLER_0_150_813
*6979 FILLER_0_150_825
*6980 FILLER_0_150_83
*6981 FILLER_0_150_837
*6982 FILLER_0_150_849
*6983 FILLER_0_150_85
*6984 FILLER_0_150_861
*6985 FILLER_0_150_867
*6986 FILLER_0_150_869
*6987 FILLER_0_150_881
*6988 FILLER_0_150_893
*6989 FILLER_0_150_905
*6990 FILLER_0_150_917
*6991 FILLER_0_150_923
*6992 FILLER_0_150_925
*6993 FILLER_0_150_937
*6994 FILLER_0_150_949
*6995 FILLER_0_150_961
*6996 FILLER_0_150_97
*6997 FILLER_0_150_973
*6998 FILLER_0_150_979
*6999 FILLER_0_150_981
*7000 FILLER_0_150_993
*7001 FILLER_0_151_1001
*7002 FILLER_0_151_1007
*7003 FILLER_0_151_1009
*7004 FILLER_0_151_1021
*7005 FILLER_0_151_1033
*7006 FILLER_0_151_1045
*7007 FILLER_0_151_105
*7008 FILLER_0_151_1057
*7009 FILLER_0_151_111
*7010 FILLER_0_151_113
*7011 FILLER_0_151_125
*7012 FILLER_0_151_137
*7013 FILLER_0_151_149
*7014 FILLER_0_151_15
*7015 FILLER_0_151_161
*7016 FILLER_0_151_167
*7017 FILLER_0_151_169
*7018 FILLER_0_151_181
*7019 FILLER_0_151_193
*7020 FILLER_0_151_205
*7021 FILLER_0_151_217
*7022 FILLER_0_151_223
*7023 FILLER_0_151_225
*7024 FILLER_0_151_237
*7025 FILLER_0_151_249
*7026 FILLER_0_151_261
*7027 FILLER_0_151_27
*7028 FILLER_0_151_273
*7029 FILLER_0_151_279
*7030 FILLER_0_151_281
*7031 FILLER_0_151_293
*7032 FILLER_0_151_3
*7033 FILLER_0_151_305
*7034 FILLER_0_151_317
*7035 FILLER_0_151_329
*7036 FILLER_0_151_335
*7037 FILLER_0_151_337
*7038 FILLER_0_151_349
*7039 FILLER_0_151_361
*7040 FILLER_0_151_373
*7041 FILLER_0_151_385
*7042 FILLER_0_151_39
*7043 FILLER_0_151_391
*7044 FILLER_0_151_393
*7045 FILLER_0_151_405
*7046 FILLER_0_151_417
*7047 FILLER_0_151_429
*7048 FILLER_0_151_441
*7049 FILLER_0_151_447
*7050 FILLER_0_151_449
*7051 FILLER_0_151_461
*7052 FILLER_0_151_473
*7053 FILLER_0_151_485
*7054 FILLER_0_151_497
*7055 FILLER_0_151_503
*7056 FILLER_0_151_505
*7057 FILLER_0_151_51
*7058 FILLER_0_151_517
*7059 FILLER_0_151_529
*7060 FILLER_0_151_541
*7061 FILLER_0_151_55
*7062 FILLER_0_151_553
*7063 FILLER_0_151_559
*7064 FILLER_0_151_561
*7065 FILLER_0_151_57
*7066 FILLER_0_151_573
*7067 FILLER_0_151_585
*7068 FILLER_0_151_597
*7069 FILLER_0_151_609
*7070 FILLER_0_151_615
*7071 FILLER_0_151_617
*7072 FILLER_0_151_629
*7073 FILLER_0_151_641
*7074 FILLER_0_151_653
*7075 FILLER_0_151_665
*7076 FILLER_0_151_671
*7077 FILLER_0_151_673
*7078 FILLER_0_151_685
*7079 FILLER_0_151_69
*7080 FILLER_0_151_697
*7081 FILLER_0_151_709
*7082 FILLER_0_151_721
*7083 FILLER_0_151_727
*7084 FILLER_0_151_729
*7085 FILLER_0_151_741
*7086 FILLER_0_151_753
*7087 FILLER_0_151_765
*7088 FILLER_0_151_777
*7089 FILLER_0_151_783
*7090 FILLER_0_151_785
*7091 FILLER_0_151_797
*7092 FILLER_0_151_809
*7093 FILLER_0_151_81
*7094 FILLER_0_151_821
*7095 FILLER_0_151_833
*7096 FILLER_0_151_839
*7097 FILLER_0_151_841
*7098 FILLER_0_151_853
*7099 FILLER_0_151_865
*7100 FILLER_0_151_877
*7101 FILLER_0_151_889
*7102 FILLER_0_151_895
*7103 FILLER_0_151_897
*7104 FILLER_0_151_909
*7105 FILLER_0_151_921
*7106 FILLER_0_151_93
*7107 FILLER_0_151_933
*7108 FILLER_0_151_945
*7109 FILLER_0_151_951
*7110 FILLER_0_151_953
*7111 FILLER_0_151_965
*7112 FILLER_0_151_977
*7113 FILLER_0_151_989
*7114 FILLER_0_152_1005
*7115 FILLER_0_152_1017
*7116 FILLER_0_152_1029
*7117 FILLER_0_152_1035
*7118 FILLER_0_152_1037
*7119 FILLER_0_152_1049
*7120 FILLER_0_152_1057
*7121 FILLER_0_152_109
*7122 FILLER_0_152_121
*7123 FILLER_0_152_133
*7124 FILLER_0_152_139
*7125 FILLER_0_152_141
*7126 FILLER_0_152_15
*7127 FILLER_0_152_153
*7128 FILLER_0_152_165
*7129 FILLER_0_152_177
*7130 FILLER_0_152_189
*7131 FILLER_0_152_195
*7132 FILLER_0_152_197
*7133 FILLER_0_152_209
*7134 FILLER_0_152_221
*7135 FILLER_0_152_233
*7136 FILLER_0_152_245
*7137 FILLER_0_152_251
*7138 FILLER_0_152_253
*7139 FILLER_0_152_265
*7140 FILLER_0_152_27
*7141 FILLER_0_152_277
*7142 FILLER_0_152_289
*7143 FILLER_0_152_29
*7144 FILLER_0_152_3
*7145 FILLER_0_152_301
*7146 FILLER_0_152_307
*7147 FILLER_0_152_309
*7148 FILLER_0_152_321
*7149 FILLER_0_152_333
*7150 FILLER_0_152_345
*7151 FILLER_0_152_357
*7152 FILLER_0_152_363
*7153 FILLER_0_152_365
*7154 FILLER_0_152_377
*7155 FILLER_0_152_389
*7156 FILLER_0_152_401
*7157 FILLER_0_152_41
*7158 FILLER_0_152_413
*7159 FILLER_0_152_419
*7160 FILLER_0_152_421
*7161 FILLER_0_152_433
*7162 FILLER_0_152_445
*7163 FILLER_0_152_457
*7164 FILLER_0_152_469
*7165 FILLER_0_152_475
*7166 FILLER_0_152_477
*7167 FILLER_0_152_489
*7168 FILLER_0_152_501
*7169 FILLER_0_152_513
*7170 FILLER_0_152_525
*7171 FILLER_0_152_53
*7172 FILLER_0_152_531
*7173 FILLER_0_152_533
*7174 FILLER_0_152_545
*7175 FILLER_0_152_557
*7176 FILLER_0_152_569
*7177 FILLER_0_152_581
*7178 FILLER_0_152_587
*7179 FILLER_0_152_589
*7180 FILLER_0_152_601
*7181 FILLER_0_152_613
*7182 FILLER_0_152_625
*7183 FILLER_0_152_637
*7184 FILLER_0_152_643
*7185 FILLER_0_152_645
*7186 FILLER_0_152_65
*7187 FILLER_0_152_657
*7188 FILLER_0_152_669
*7189 FILLER_0_152_681
*7190 FILLER_0_152_693
*7191 FILLER_0_152_699
*7192 FILLER_0_152_701
*7193 FILLER_0_152_713
*7194 FILLER_0_152_725
*7195 FILLER_0_152_737
*7196 FILLER_0_152_749
*7197 FILLER_0_152_755
*7198 FILLER_0_152_757
*7199 FILLER_0_152_769
*7200 FILLER_0_152_77
*7201 FILLER_0_152_781
*7202 FILLER_0_152_793
*7203 FILLER_0_152_805
*7204 FILLER_0_152_811
*7205 FILLER_0_152_813
*7206 FILLER_0_152_825
*7207 FILLER_0_152_83
*7208 FILLER_0_152_837
*7209 FILLER_0_152_849
*7210 FILLER_0_152_85
*7211 FILLER_0_152_861
*7212 FILLER_0_152_867
*7213 FILLER_0_152_869
*7214 FILLER_0_152_881
*7215 FILLER_0_152_893
*7216 FILLER_0_152_905
*7217 FILLER_0_152_917
*7218 FILLER_0_152_923
*7219 FILLER_0_152_925
*7220 FILLER_0_152_937
*7221 FILLER_0_152_949
*7222 FILLER_0_152_961
*7223 FILLER_0_152_97
*7224 FILLER_0_152_973
*7225 FILLER_0_152_979
*7226 FILLER_0_152_981
*7227 FILLER_0_152_993
*7228 FILLER_0_153_1001
*7229 FILLER_0_153_1007
*7230 FILLER_0_153_1009
*7231 FILLER_0_153_1021
*7232 FILLER_0_153_1033
*7233 FILLER_0_153_1045
*7234 FILLER_0_153_105
*7235 FILLER_0_153_1057
*7236 FILLER_0_153_11
*7237 FILLER_0_153_111
*7238 FILLER_0_153_113
*7239 FILLER_0_153_125
*7240 FILLER_0_153_137
*7241 FILLER_0_153_149
*7242 FILLER_0_153_161
*7243 FILLER_0_153_167
*7244 FILLER_0_153_169
*7245 FILLER_0_153_181
*7246 FILLER_0_153_193
*7247 FILLER_0_153_205
*7248 FILLER_0_153_217
*7249 FILLER_0_153_223
*7250 FILLER_0_153_225
*7251 FILLER_0_153_23
*7252 FILLER_0_153_237
*7253 FILLER_0_153_249
*7254 FILLER_0_153_261
*7255 FILLER_0_153_273
*7256 FILLER_0_153_279
*7257 FILLER_0_153_281
*7258 FILLER_0_153_293
*7259 FILLER_0_153_305
*7260 FILLER_0_153_317
*7261 FILLER_0_153_329
*7262 FILLER_0_153_335
*7263 FILLER_0_153_337
*7264 FILLER_0_153_349
*7265 FILLER_0_153_35
*7266 FILLER_0_153_361
*7267 FILLER_0_153_373
*7268 FILLER_0_153_385
*7269 FILLER_0_153_391
*7270 FILLER_0_153_393
*7271 FILLER_0_153_405
*7272 FILLER_0_153_417
*7273 FILLER_0_153_429
*7274 FILLER_0_153_441
*7275 FILLER_0_153_447
*7276 FILLER_0_153_449
*7277 FILLER_0_153_461
*7278 FILLER_0_153_47
*7279 FILLER_0_153_473
*7280 FILLER_0_153_485
*7281 FILLER_0_153_497
*7282 FILLER_0_153_503
*7283 FILLER_0_153_505
*7284 FILLER_0_153_517
*7285 FILLER_0_153_529
*7286 FILLER_0_153_541
*7287 FILLER_0_153_55
*7288 FILLER_0_153_553
*7289 FILLER_0_153_559
*7290 FILLER_0_153_561
*7291 FILLER_0_153_57
*7292 FILLER_0_153_573
*7293 FILLER_0_153_585
*7294 FILLER_0_153_597
*7295 FILLER_0_153_609
*7296 FILLER_0_153_615
*7297 FILLER_0_153_617
*7298 FILLER_0_153_629
*7299 FILLER_0_153_641
*7300 FILLER_0_153_653
*7301 FILLER_0_153_665
*7302 FILLER_0_153_671
*7303 FILLER_0_153_673
*7304 FILLER_0_153_685
*7305 FILLER_0_153_69
*7306 FILLER_0_153_697
*7307 FILLER_0_153_7
*7308 FILLER_0_153_709
*7309 FILLER_0_153_721
*7310 FILLER_0_153_727
*7311 FILLER_0_153_729
*7312 FILLER_0_153_741
*7313 FILLER_0_153_753
*7314 FILLER_0_153_765
*7315 FILLER_0_153_777
*7316 FILLER_0_153_783
*7317 FILLER_0_153_785
*7318 FILLER_0_153_797
*7319 FILLER_0_153_809
*7320 FILLER_0_153_81
*7321 FILLER_0_153_821
*7322 FILLER_0_153_833
*7323 FILLER_0_153_839
*7324 FILLER_0_153_841
*7325 FILLER_0_153_853
*7326 FILLER_0_153_865
*7327 FILLER_0_153_877
*7328 FILLER_0_153_889
*7329 FILLER_0_153_895
*7330 FILLER_0_153_897
*7331 FILLER_0_153_909
*7332 FILLER_0_153_921
*7333 FILLER_0_153_93
*7334 FILLER_0_153_933
*7335 FILLER_0_153_945
*7336 FILLER_0_153_951
*7337 FILLER_0_153_953
*7338 FILLER_0_153_965
*7339 FILLER_0_153_977
*7340 FILLER_0_153_989
*7341 FILLER_0_154_1005
*7342 FILLER_0_154_1017
*7343 FILLER_0_154_1029
*7344 FILLER_0_154_1035
*7345 FILLER_0_154_1037
*7346 FILLER_0_154_1049
*7347 FILLER_0_154_1057
*7348 FILLER_0_154_109
*7349 FILLER_0_154_121
*7350 FILLER_0_154_133
*7351 FILLER_0_154_139
*7352 FILLER_0_154_141
*7353 FILLER_0_154_15
*7354 FILLER_0_154_153
*7355 FILLER_0_154_165
*7356 FILLER_0_154_177
*7357 FILLER_0_154_189
*7358 FILLER_0_154_195
*7359 FILLER_0_154_197
*7360 FILLER_0_154_209
*7361 FILLER_0_154_221
*7362 FILLER_0_154_233
*7363 FILLER_0_154_245
*7364 FILLER_0_154_251
*7365 FILLER_0_154_253
*7366 FILLER_0_154_265
*7367 FILLER_0_154_27
*7368 FILLER_0_154_277
*7369 FILLER_0_154_289
*7370 FILLER_0_154_29
*7371 FILLER_0_154_3
*7372 FILLER_0_154_301
*7373 FILLER_0_154_307
*7374 FILLER_0_154_309
*7375 FILLER_0_154_321
*7376 FILLER_0_154_333
*7377 FILLER_0_154_345
*7378 FILLER_0_154_357
*7379 FILLER_0_154_363
*7380 FILLER_0_154_365
*7381 FILLER_0_154_377
*7382 FILLER_0_154_389
*7383 FILLER_0_154_401
*7384 FILLER_0_154_41
*7385 FILLER_0_154_413
*7386 FILLER_0_154_419
*7387 FILLER_0_154_421
*7388 FILLER_0_154_433
*7389 FILLER_0_154_445
*7390 FILLER_0_154_457
*7391 FILLER_0_154_469
*7392 FILLER_0_154_475
*7393 FILLER_0_154_477
*7394 FILLER_0_154_489
*7395 FILLER_0_154_501
*7396 FILLER_0_154_513
*7397 FILLER_0_154_525
*7398 FILLER_0_154_53
*7399 FILLER_0_154_531
*7400 FILLER_0_154_533
*7401 FILLER_0_154_545
*7402 FILLER_0_154_557
*7403 FILLER_0_154_569
*7404 FILLER_0_154_581
*7405 FILLER_0_154_587
*7406 FILLER_0_154_589
*7407 FILLER_0_154_601
*7408 FILLER_0_154_613
*7409 FILLER_0_154_625
*7410 FILLER_0_154_637
*7411 FILLER_0_154_643
*7412 FILLER_0_154_645
*7413 FILLER_0_154_65
*7414 FILLER_0_154_657
*7415 FILLER_0_154_669
*7416 FILLER_0_154_681
*7417 FILLER_0_154_693
*7418 FILLER_0_154_699
*7419 FILLER_0_154_701
*7420 FILLER_0_154_713
*7421 FILLER_0_154_725
*7422 FILLER_0_154_737
*7423 FILLER_0_154_749
*7424 FILLER_0_154_755
*7425 FILLER_0_154_757
*7426 FILLER_0_154_769
*7427 FILLER_0_154_77
*7428 FILLER_0_154_781
*7429 FILLER_0_154_793
*7430 FILLER_0_154_805
*7431 FILLER_0_154_811
*7432 FILLER_0_154_813
*7433 FILLER_0_154_825
*7434 FILLER_0_154_83
*7435 FILLER_0_154_837
*7436 FILLER_0_154_849
*7437 FILLER_0_154_85
*7438 FILLER_0_154_861
*7439 FILLER_0_154_867
*7440 FILLER_0_154_869
*7441 FILLER_0_154_881
*7442 FILLER_0_154_893
*7443 FILLER_0_154_905
*7444 FILLER_0_154_917
*7445 FILLER_0_154_923
*7446 FILLER_0_154_925
*7447 FILLER_0_154_937
*7448 FILLER_0_154_949
*7449 FILLER_0_154_961
*7450 FILLER_0_154_97
*7451 FILLER_0_154_973
*7452 FILLER_0_154_979
*7453 FILLER_0_154_981
*7454 FILLER_0_154_993
*7455 FILLER_0_155_1001
*7456 FILLER_0_155_1007
*7457 FILLER_0_155_1009
*7458 FILLER_0_155_1021
*7459 FILLER_0_155_1033
*7460 FILLER_0_155_1045
*7461 FILLER_0_155_105
*7462 FILLER_0_155_1057
*7463 FILLER_0_155_111
*7464 FILLER_0_155_113
*7465 FILLER_0_155_125
*7466 FILLER_0_155_137
*7467 FILLER_0_155_149
*7468 FILLER_0_155_15
*7469 FILLER_0_155_161
*7470 FILLER_0_155_167
*7471 FILLER_0_155_169
*7472 FILLER_0_155_181
*7473 FILLER_0_155_193
*7474 FILLER_0_155_205
*7475 FILLER_0_155_217
*7476 FILLER_0_155_223
*7477 FILLER_0_155_225
*7478 FILLER_0_155_237
*7479 FILLER_0_155_249
*7480 FILLER_0_155_261
*7481 FILLER_0_155_27
*7482 FILLER_0_155_273
*7483 FILLER_0_155_279
*7484 FILLER_0_155_281
*7485 FILLER_0_155_293
*7486 FILLER_0_155_3
*7487 FILLER_0_155_305
*7488 FILLER_0_155_317
*7489 FILLER_0_155_329
*7490 FILLER_0_155_335
*7491 FILLER_0_155_337
*7492 FILLER_0_155_349
*7493 FILLER_0_155_361
*7494 FILLER_0_155_373
*7495 FILLER_0_155_385
*7496 FILLER_0_155_39
*7497 FILLER_0_155_391
*7498 FILLER_0_155_393
*7499 FILLER_0_155_405
*7500 FILLER_0_155_417
*7501 FILLER_0_155_429
*7502 FILLER_0_155_441
*7503 FILLER_0_155_447
*7504 FILLER_0_155_449
*7505 FILLER_0_155_461
*7506 FILLER_0_155_473
*7507 FILLER_0_155_485
*7508 FILLER_0_155_497
*7509 FILLER_0_155_503
*7510 FILLER_0_155_505
*7511 FILLER_0_155_51
*7512 FILLER_0_155_517
*7513 FILLER_0_155_529
*7514 FILLER_0_155_541
*7515 FILLER_0_155_55
*7516 FILLER_0_155_553
*7517 FILLER_0_155_559
*7518 FILLER_0_155_561
*7519 FILLER_0_155_57
*7520 FILLER_0_155_573
*7521 FILLER_0_155_585
*7522 FILLER_0_155_597
*7523 FILLER_0_155_609
*7524 FILLER_0_155_615
*7525 FILLER_0_155_617
*7526 FILLER_0_155_629
*7527 FILLER_0_155_641
*7528 FILLER_0_155_653
*7529 FILLER_0_155_665
*7530 FILLER_0_155_671
*7531 FILLER_0_155_673
*7532 FILLER_0_155_685
*7533 FILLER_0_155_69
*7534 FILLER_0_155_697
*7535 FILLER_0_155_709
*7536 FILLER_0_155_721
*7537 FILLER_0_155_727
*7538 FILLER_0_155_729
*7539 FILLER_0_155_741
*7540 FILLER_0_155_753
*7541 FILLER_0_155_765
*7542 FILLER_0_155_777
*7543 FILLER_0_155_783
*7544 FILLER_0_155_785
*7545 FILLER_0_155_797
*7546 FILLER_0_155_809
*7547 FILLER_0_155_81
*7548 FILLER_0_155_821
*7549 FILLER_0_155_833
*7550 FILLER_0_155_839
*7551 FILLER_0_155_841
*7552 FILLER_0_155_853
*7553 FILLER_0_155_865
*7554 FILLER_0_155_877
*7555 FILLER_0_155_889
*7556 FILLER_0_155_895
*7557 FILLER_0_155_897
*7558 FILLER_0_155_909
*7559 FILLER_0_155_921
*7560 FILLER_0_155_93
*7561 FILLER_0_155_933
*7562 FILLER_0_155_945
*7563 FILLER_0_155_951
*7564 FILLER_0_155_953
*7565 FILLER_0_155_965
*7566 FILLER_0_155_977
*7567 FILLER_0_155_989
*7568 FILLER_0_156_1005
*7569 FILLER_0_156_1017
*7570 FILLER_0_156_1029
*7571 FILLER_0_156_1035
*7572 FILLER_0_156_1037
*7573 FILLER_0_156_1049
*7574 FILLER_0_156_1057
*7575 FILLER_0_156_109
*7576 FILLER_0_156_121
*7577 FILLER_0_156_133
*7578 FILLER_0_156_139
*7579 FILLER_0_156_141
*7580 FILLER_0_156_15
*7581 FILLER_0_156_153
*7582 FILLER_0_156_165
*7583 FILLER_0_156_177
*7584 FILLER_0_156_189
*7585 FILLER_0_156_195
*7586 FILLER_0_156_197
*7587 FILLER_0_156_209
*7588 FILLER_0_156_221
*7589 FILLER_0_156_233
*7590 FILLER_0_156_245
*7591 FILLER_0_156_251
*7592 FILLER_0_156_253
*7593 FILLER_0_156_265
*7594 FILLER_0_156_27
*7595 FILLER_0_156_277
*7596 FILLER_0_156_289
*7597 FILLER_0_156_29
*7598 FILLER_0_156_3
*7599 FILLER_0_156_301
*7600 FILLER_0_156_307
*7601 FILLER_0_156_309
*7602 FILLER_0_156_321
*7603 FILLER_0_156_333
*7604 FILLER_0_156_345
*7605 FILLER_0_156_357
*7606 FILLER_0_156_363
*7607 FILLER_0_156_365
*7608 FILLER_0_156_377
*7609 FILLER_0_156_389
*7610 FILLER_0_156_401
*7611 FILLER_0_156_41
*7612 FILLER_0_156_413
*7613 FILLER_0_156_419
*7614 FILLER_0_156_421
*7615 FILLER_0_156_433
*7616 FILLER_0_156_445
*7617 FILLER_0_156_457
*7618 FILLER_0_156_469
*7619 FILLER_0_156_475
*7620 FILLER_0_156_477
*7621 FILLER_0_156_489
*7622 FILLER_0_156_501
*7623 FILLER_0_156_513
*7624 FILLER_0_156_525
*7625 FILLER_0_156_53
*7626 FILLER_0_156_531
*7627 FILLER_0_156_533
*7628 FILLER_0_156_545
*7629 FILLER_0_156_557
*7630 FILLER_0_156_569
*7631 FILLER_0_156_581
*7632 FILLER_0_156_587
*7633 FILLER_0_156_589
*7634 FILLER_0_156_601
*7635 FILLER_0_156_613
*7636 FILLER_0_156_625
*7637 FILLER_0_156_637
*7638 FILLER_0_156_643
*7639 FILLER_0_156_645
*7640 FILLER_0_156_65
*7641 FILLER_0_156_657
*7642 FILLER_0_156_669
*7643 FILLER_0_156_681
*7644 FILLER_0_156_693
*7645 FILLER_0_156_699
*7646 FILLER_0_156_701
*7647 FILLER_0_156_713
*7648 FILLER_0_156_725
*7649 FILLER_0_156_737
*7650 FILLER_0_156_749
*7651 FILLER_0_156_755
*7652 FILLER_0_156_757
*7653 FILLER_0_156_769
*7654 FILLER_0_156_77
*7655 FILLER_0_156_781
*7656 FILLER_0_156_793
*7657 FILLER_0_156_805
*7658 FILLER_0_156_811
*7659 FILLER_0_156_813
*7660 FILLER_0_156_825
*7661 FILLER_0_156_83
*7662 FILLER_0_156_837
*7663 FILLER_0_156_849
*7664 FILLER_0_156_85
*7665 FILLER_0_156_861
*7666 FILLER_0_156_867
*7667 FILLER_0_156_869
*7668 FILLER_0_156_881
*7669 FILLER_0_156_893
*7670 FILLER_0_156_905
*7671 FILLER_0_156_917
*7672 FILLER_0_156_923
*7673 FILLER_0_156_925
*7674 FILLER_0_156_937
*7675 FILLER_0_156_949
*7676 FILLER_0_156_961
*7677 FILLER_0_156_97
*7678 FILLER_0_156_973
*7679 FILLER_0_156_979
*7680 FILLER_0_156_981
*7681 FILLER_0_156_993
*7682 FILLER_0_157_1001
*7683 FILLER_0_157_1007
*7684 FILLER_0_157_1009
*7685 FILLER_0_157_1021
*7686 FILLER_0_157_1033
*7687 FILLER_0_157_1045
*7688 FILLER_0_157_105
*7689 FILLER_0_157_1057
*7690 FILLER_0_157_111
*7691 FILLER_0_157_113
*7692 FILLER_0_157_125
*7693 FILLER_0_157_137
*7694 FILLER_0_157_149
*7695 FILLER_0_157_15
*7696 FILLER_0_157_161
*7697 FILLER_0_157_167
*7698 FILLER_0_157_169
*7699 FILLER_0_157_181
*7700 FILLER_0_157_193
*7701 FILLER_0_157_205
*7702 FILLER_0_157_217
*7703 FILLER_0_157_223
*7704 FILLER_0_157_225
*7705 FILLER_0_157_237
*7706 FILLER_0_157_249
*7707 FILLER_0_157_261
*7708 FILLER_0_157_27
*7709 FILLER_0_157_273
*7710 FILLER_0_157_279
*7711 FILLER_0_157_281
*7712 FILLER_0_157_293
*7713 FILLER_0_157_3
*7714 FILLER_0_157_305
*7715 FILLER_0_157_317
*7716 FILLER_0_157_329
*7717 FILLER_0_157_335
*7718 FILLER_0_157_337
*7719 FILLER_0_157_349
*7720 FILLER_0_157_361
*7721 FILLER_0_157_373
*7722 FILLER_0_157_385
*7723 FILLER_0_157_39
*7724 FILLER_0_157_391
*7725 FILLER_0_157_393
*7726 FILLER_0_157_405
*7727 FILLER_0_157_417
*7728 FILLER_0_157_429
*7729 FILLER_0_157_441
*7730 FILLER_0_157_447
*7731 FILLER_0_157_449
*7732 FILLER_0_157_461
*7733 FILLER_0_157_473
*7734 FILLER_0_157_485
*7735 FILLER_0_157_497
*7736 FILLER_0_157_503
*7737 FILLER_0_157_505
*7738 FILLER_0_157_51
*7739 FILLER_0_157_517
*7740 FILLER_0_157_529
*7741 FILLER_0_157_541
*7742 FILLER_0_157_55
*7743 FILLER_0_157_553
*7744 FILLER_0_157_559
*7745 FILLER_0_157_561
*7746 FILLER_0_157_57
*7747 FILLER_0_157_573
*7748 FILLER_0_157_585
*7749 FILLER_0_157_597
*7750 FILLER_0_157_609
*7751 FILLER_0_157_615
*7752 FILLER_0_157_617
*7753 FILLER_0_157_629
*7754 FILLER_0_157_641
*7755 FILLER_0_157_653
*7756 FILLER_0_157_665
*7757 FILLER_0_157_671
*7758 FILLER_0_157_673
*7759 FILLER_0_157_685
*7760 FILLER_0_157_69
*7761 FILLER_0_157_697
*7762 FILLER_0_157_709
*7763 FILLER_0_157_721
*7764 FILLER_0_157_727
*7765 FILLER_0_157_729
*7766 FILLER_0_157_741
*7767 FILLER_0_157_753
*7768 FILLER_0_157_765
*7769 FILLER_0_157_777
*7770 FILLER_0_157_783
*7771 FILLER_0_157_785
*7772 FILLER_0_157_797
*7773 FILLER_0_157_809
*7774 FILLER_0_157_81
*7775 FILLER_0_157_821
*7776 FILLER_0_157_833
*7777 FILLER_0_157_839
*7778 FILLER_0_157_841
*7779 FILLER_0_157_853
*7780 FILLER_0_157_865
*7781 FILLER_0_157_877
*7782 FILLER_0_157_889
*7783 FILLER_0_157_895
*7784 FILLER_0_157_897
*7785 FILLER_0_157_909
*7786 FILLER_0_157_921
*7787 FILLER_0_157_93
*7788 FILLER_0_157_933
*7789 FILLER_0_157_945
*7790 FILLER_0_157_951
*7791 FILLER_0_157_953
*7792 FILLER_0_157_965
*7793 FILLER_0_157_977
*7794 FILLER_0_157_989
*7795 FILLER_0_158_1005
*7796 FILLER_0_158_1017
*7797 FILLER_0_158_1029
*7798 FILLER_0_158_1035
*7799 FILLER_0_158_1037
*7800 FILLER_0_158_1049
*7801 FILLER_0_158_1057
*7802 FILLER_0_158_109
*7803 FILLER_0_158_121
*7804 FILLER_0_158_133
*7805 FILLER_0_158_139
*7806 FILLER_0_158_141
*7807 FILLER_0_158_153
*7808 FILLER_0_158_165
*7809 FILLER_0_158_177
*7810 FILLER_0_158_18
*7811 FILLER_0_158_189
*7812 FILLER_0_158_195
*7813 FILLER_0_158_197
*7814 FILLER_0_158_209
*7815 FILLER_0_158_221
*7816 FILLER_0_158_233
*7817 FILLER_0_158_245
*7818 FILLER_0_158_251
*7819 FILLER_0_158_253
*7820 FILLER_0_158_26
*7821 FILLER_0_158_265
*7822 FILLER_0_158_277
*7823 FILLER_0_158_289
*7824 FILLER_0_158_29
*7825 FILLER_0_158_301
*7826 FILLER_0_158_307
*7827 FILLER_0_158_309
*7828 FILLER_0_158_321
*7829 FILLER_0_158_333
*7830 FILLER_0_158_345
*7831 FILLER_0_158_357
*7832 FILLER_0_158_363
*7833 FILLER_0_158_365
*7834 FILLER_0_158_377
*7835 FILLER_0_158_389
*7836 FILLER_0_158_401
*7837 FILLER_0_158_41
*7838 FILLER_0_158_413
*7839 FILLER_0_158_419
*7840 FILLER_0_158_421
*7841 FILLER_0_158_433
*7842 FILLER_0_158_445
*7843 FILLER_0_158_457
*7844 FILLER_0_158_469
*7845 FILLER_0_158_475
*7846 FILLER_0_158_477
*7847 FILLER_0_158_489
*7848 FILLER_0_158_501
*7849 FILLER_0_158_513
*7850 FILLER_0_158_525
*7851 FILLER_0_158_53
*7852 FILLER_0_158_531
*7853 FILLER_0_158_533
*7854 FILLER_0_158_545
*7855 FILLER_0_158_557
*7856 FILLER_0_158_569
*7857 FILLER_0_158_581
*7858 FILLER_0_158_587
*7859 FILLER_0_158_589
*7860 FILLER_0_158_6
*7861 FILLER_0_158_601
*7862 FILLER_0_158_613
*7863 FILLER_0_158_625
*7864 FILLER_0_158_637
*7865 FILLER_0_158_643
*7866 FILLER_0_158_645
*7867 FILLER_0_158_65
*7868 FILLER_0_158_657
*7869 FILLER_0_158_669
*7870 FILLER_0_158_681
*7871 FILLER_0_158_693
*7872 FILLER_0_158_699
*7873 FILLER_0_158_701
*7874 FILLER_0_158_713
*7875 FILLER_0_158_725
*7876 FILLER_0_158_737
*7877 FILLER_0_158_749
*7878 FILLER_0_158_755
*7879 FILLER_0_158_757
*7880 FILLER_0_158_769
*7881 FILLER_0_158_77
*7882 FILLER_0_158_781
*7883 FILLER_0_158_793
*7884 FILLER_0_158_805
*7885 FILLER_0_158_811
*7886 FILLER_0_158_813
*7887 FILLER_0_158_825
*7888 FILLER_0_158_83
*7889 FILLER_0_158_837
*7890 FILLER_0_158_849
*7891 FILLER_0_158_85
*7892 FILLER_0_158_861
*7893 FILLER_0_158_867
*7894 FILLER_0_158_869
*7895 FILLER_0_158_881
*7896 FILLER_0_158_893
*7897 FILLER_0_158_905
*7898 FILLER_0_158_917
*7899 FILLER_0_158_923
*7900 FILLER_0_158_925
*7901 FILLER_0_158_937
*7902 FILLER_0_158_949
*7903 FILLER_0_158_961
*7904 FILLER_0_158_97
*7905 FILLER_0_158_973
*7906 FILLER_0_158_979
*7907 FILLER_0_158_981
*7908 FILLER_0_158_993
*7909 FILLER_0_159_1001
*7910 FILLER_0_159_1007
*7911 FILLER_0_159_1009
*7912 FILLER_0_159_1021
*7913 FILLER_0_159_1033
*7914 FILLER_0_159_1045
*7915 FILLER_0_159_105
*7916 FILLER_0_159_1057
*7917 FILLER_0_159_111
*7918 FILLER_0_159_113
*7919 FILLER_0_159_125
*7920 FILLER_0_159_137
*7921 FILLER_0_159_149
*7922 FILLER_0_159_15
*7923 FILLER_0_159_161
*7924 FILLER_0_159_167
*7925 FILLER_0_159_169
*7926 FILLER_0_159_181
*7927 FILLER_0_159_193
*7928 FILLER_0_159_205
*7929 FILLER_0_159_217
*7930 FILLER_0_159_223
*7931 FILLER_0_159_225
*7932 FILLER_0_159_237
*7933 FILLER_0_159_249
*7934 FILLER_0_159_261
*7935 FILLER_0_159_27
*7936 FILLER_0_159_273
*7937 FILLER_0_159_279
*7938 FILLER_0_159_281
*7939 FILLER_0_159_293
*7940 FILLER_0_159_3
*7941 FILLER_0_159_305
*7942 FILLER_0_159_317
*7943 FILLER_0_159_329
*7944 FILLER_0_159_335
*7945 FILLER_0_159_337
*7946 FILLER_0_159_349
*7947 FILLER_0_159_361
*7948 FILLER_0_159_373
*7949 FILLER_0_159_385
*7950 FILLER_0_159_39
*7951 FILLER_0_159_391
*7952 FILLER_0_159_393
*7953 FILLER_0_159_405
*7954 FILLER_0_159_417
*7955 FILLER_0_159_429
*7956 FILLER_0_159_441
*7957 FILLER_0_159_447
*7958 FILLER_0_159_449
*7959 FILLER_0_159_461
*7960 FILLER_0_159_473
*7961 FILLER_0_159_485
*7962 FILLER_0_159_497
*7963 FILLER_0_159_503
*7964 FILLER_0_159_505
*7965 FILLER_0_159_51
*7966 FILLER_0_159_517
*7967 FILLER_0_159_529
*7968 FILLER_0_159_541
*7969 FILLER_0_159_55
*7970 FILLER_0_159_553
*7971 FILLER_0_159_559
*7972 FILLER_0_159_561
*7973 FILLER_0_159_57
*7974 FILLER_0_159_573
*7975 FILLER_0_159_585
*7976 FILLER_0_159_597
*7977 FILLER_0_159_609
*7978 FILLER_0_159_615
*7979 FILLER_0_159_617
*7980 FILLER_0_159_629
*7981 FILLER_0_159_641
*7982 FILLER_0_159_653
*7983 FILLER_0_159_665
*7984 FILLER_0_159_671
*7985 FILLER_0_159_673
*7986 FILLER_0_159_685
*7987 FILLER_0_159_69
*7988 FILLER_0_159_697
*7989 FILLER_0_159_709
*7990 FILLER_0_159_721
*7991 FILLER_0_159_727
*7992 FILLER_0_159_729
*7993 FILLER_0_159_741
*7994 FILLER_0_159_753
*7995 FILLER_0_159_765
*7996 FILLER_0_159_777
*7997 FILLER_0_159_783
*7998 FILLER_0_159_785
*7999 FILLER_0_159_797
*8000 FILLER_0_159_809
*8001 FILLER_0_159_81
*8002 FILLER_0_159_821
*8003 FILLER_0_159_833
*8004 FILLER_0_159_839
*8005 FILLER_0_159_841
*8006 FILLER_0_159_853
*8007 FILLER_0_159_865
*8008 FILLER_0_159_877
*8009 FILLER_0_159_889
*8010 FILLER_0_159_895
*8011 FILLER_0_159_897
*8012 FILLER_0_159_909
*8013 FILLER_0_159_921
*8014 FILLER_0_159_93
*8015 FILLER_0_159_933
*8016 FILLER_0_159_945
*8017 FILLER_0_159_951
*8018 FILLER_0_159_953
*8019 FILLER_0_159_965
*8020 FILLER_0_159_977
*8021 FILLER_0_159_989
*8022 FILLER_0_15_1001
*8023 FILLER_0_15_1007
*8024 FILLER_0_15_1009
*8025 FILLER_0_15_1021
*8026 FILLER_0_15_1033
*8027 FILLER_0_15_1045
*8028 FILLER_0_15_105
*8029 FILLER_0_15_1057
*8030 FILLER_0_15_111
*8031 FILLER_0_15_113
*8032 FILLER_0_15_125
*8033 FILLER_0_15_137
*8034 FILLER_0_15_149
*8035 FILLER_0_15_15
*8036 FILLER_0_15_161
*8037 FILLER_0_15_167
*8038 FILLER_0_15_169
*8039 FILLER_0_15_181
*8040 FILLER_0_15_193
*8041 FILLER_0_15_205
*8042 FILLER_0_15_217
*8043 FILLER_0_15_223
*8044 FILLER_0_15_225
*8045 FILLER_0_15_237
*8046 FILLER_0_15_249
*8047 FILLER_0_15_261
*8048 FILLER_0_15_27
*8049 FILLER_0_15_273
*8050 FILLER_0_15_279
*8051 FILLER_0_15_281
*8052 FILLER_0_15_293
*8053 FILLER_0_15_3
*8054 FILLER_0_15_305
*8055 FILLER_0_15_317
*8056 FILLER_0_15_329
*8057 FILLER_0_15_335
*8058 FILLER_0_15_337
*8059 FILLER_0_15_349
*8060 FILLER_0_15_361
*8061 FILLER_0_15_373
*8062 FILLER_0_15_385
*8063 FILLER_0_15_39
*8064 FILLER_0_15_391
*8065 FILLER_0_15_393
*8066 FILLER_0_15_405
*8067 FILLER_0_15_417
*8068 FILLER_0_15_429
*8069 FILLER_0_15_441
*8070 FILLER_0_15_447
*8071 FILLER_0_15_449
*8072 FILLER_0_15_461
*8073 FILLER_0_15_473
*8074 FILLER_0_15_485
*8075 FILLER_0_15_497
*8076 FILLER_0_15_503
*8077 FILLER_0_15_505
*8078 FILLER_0_15_51
*8079 FILLER_0_15_517
*8080 FILLER_0_15_529
*8081 FILLER_0_15_541
*8082 FILLER_0_15_55
*8083 FILLER_0_15_553
*8084 FILLER_0_15_559
*8085 FILLER_0_15_561
*8086 FILLER_0_15_57
*8087 FILLER_0_15_573
*8088 FILLER_0_15_585
*8089 FILLER_0_15_597
*8090 FILLER_0_15_609
*8091 FILLER_0_15_615
*8092 FILLER_0_15_617
*8093 FILLER_0_15_629
*8094 FILLER_0_15_641
*8095 FILLER_0_15_653
*8096 FILLER_0_15_665
*8097 FILLER_0_15_671
*8098 FILLER_0_15_673
*8099 FILLER_0_15_685
*8100 FILLER_0_15_69
*8101 FILLER_0_15_697
*8102 FILLER_0_15_709
*8103 FILLER_0_15_721
*8104 FILLER_0_15_727
*8105 FILLER_0_15_729
*8106 FILLER_0_15_741
*8107 FILLER_0_15_753
*8108 FILLER_0_15_765
*8109 FILLER_0_15_777
*8110 FILLER_0_15_783
*8111 FILLER_0_15_785
*8112 FILLER_0_15_797
*8113 FILLER_0_15_809
*8114 FILLER_0_15_81
*8115 FILLER_0_15_821
*8116 FILLER_0_15_833
*8117 FILLER_0_15_839
*8118 FILLER_0_15_841
*8119 FILLER_0_15_853
*8120 FILLER_0_15_865
*8121 FILLER_0_15_877
*8122 FILLER_0_15_889
*8123 FILLER_0_15_895
*8124 FILLER_0_15_897
*8125 FILLER_0_15_909
*8126 FILLER_0_15_921
*8127 FILLER_0_15_93
*8128 FILLER_0_15_933
*8129 FILLER_0_15_945
*8130 FILLER_0_15_951
*8131 FILLER_0_15_953
*8132 FILLER_0_15_965
*8133 FILLER_0_15_977
*8134 FILLER_0_15_989
*8135 FILLER_0_160_1005
*8136 FILLER_0_160_1017
*8137 FILLER_0_160_1029
*8138 FILLER_0_160_1035
*8139 FILLER_0_160_1037
*8140 FILLER_0_160_1049
*8141 FILLER_0_160_1057
*8142 FILLER_0_160_109
*8143 FILLER_0_160_121
*8144 FILLER_0_160_133
*8145 FILLER_0_160_139
*8146 FILLER_0_160_141
*8147 FILLER_0_160_15
*8148 FILLER_0_160_153
*8149 FILLER_0_160_165
*8150 FILLER_0_160_177
*8151 FILLER_0_160_189
*8152 FILLER_0_160_195
*8153 FILLER_0_160_197
*8154 FILLER_0_160_209
*8155 FILLER_0_160_221
*8156 FILLER_0_160_233
*8157 FILLER_0_160_245
*8158 FILLER_0_160_251
*8159 FILLER_0_160_253
*8160 FILLER_0_160_265
*8161 FILLER_0_160_27
*8162 FILLER_0_160_277
*8163 FILLER_0_160_289
*8164 FILLER_0_160_29
*8165 FILLER_0_160_3
*8166 FILLER_0_160_301
*8167 FILLER_0_160_307
*8168 FILLER_0_160_309
*8169 FILLER_0_160_321
*8170 FILLER_0_160_333
*8171 FILLER_0_160_345
*8172 FILLER_0_160_357
*8173 FILLER_0_160_363
*8174 FILLER_0_160_365
*8175 FILLER_0_160_377
*8176 FILLER_0_160_389
*8177 FILLER_0_160_401
*8178 FILLER_0_160_41
*8179 FILLER_0_160_413
*8180 FILLER_0_160_419
*8181 FILLER_0_160_421
*8182 FILLER_0_160_433
*8183 FILLER_0_160_445
*8184 FILLER_0_160_457
*8185 FILLER_0_160_469
*8186 FILLER_0_160_475
*8187 FILLER_0_160_477
*8188 FILLER_0_160_489
*8189 FILLER_0_160_501
*8190 FILLER_0_160_513
*8191 FILLER_0_160_525
*8192 FILLER_0_160_53
*8193 FILLER_0_160_531
*8194 FILLER_0_160_533
*8195 FILLER_0_160_545
*8196 FILLER_0_160_557
*8197 FILLER_0_160_569
*8198 FILLER_0_160_581
*8199 FILLER_0_160_587
*8200 FILLER_0_160_589
*8201 FILLER_0_160_601
*8202 FILLER_0_160_613
*8203 FILLER_0_160_625
*8204 FILLER_0_160_637
*8205 FILLER_0_160_643
*8206 FILLER_0_160_645
*8207 FILLER_0_160_65
*8208 FILLER_0_160_657
*8209 FILLER_0_160_669
*8210 FILLER_0_160_681
*8211 FILLER_0_160_693
*8212 FILLER_0_160_699
*8213 FILLER_0_160_701
*8214 FILLER_0_160_713
*8215 FILLER_0_160_725
*8216 FILLER_0_160_737
*8217 FILLER_0_160_749
*8218 FILLER_0_160_755
*8219 FILLER_0_160_757
*8220 FILLER_0_160_769
*8221 FILLER_0_160_77
*8222 FILLER_0_160_781
*8223 FILLER_0_160_793
*8224 FILLER_0_160_805
*8225 FILLER_0_160_811
*8226 FILLER_0_160_813
*8227 FILLER_0_160_825
*8228 FILLER_0_160_83
*8229 FILLER_0_160_837
*8230 FILLER_0_160_849
*8231 FILLER_0_160_85
*8232 FILLER_0_160_861
*8233 FILLER_0_160_867
*8234 FILLER_0_160_869
*8235 FILLER_0_160_881
*8236 FILLER_0_160_893
*8237 FILLER_0_160_905
*8238 FILLER_0_160_917
*8239 FILLER_0_160_923
*8240 FILLER_0_160_925
*8241 FILLER_0_160_937
*8242 FILLER_0_160_949
*8243 FILLER_0_160_961
*8244 FILLER_0_160_97
*8245 FILLER_0_160_973
*8246 FILLER_0_160_979
*8247 FILLER_0_160_981
*8248 FILLER_0_160_993
*8249 FILLER_0_161_1001
*8250 FILLER_0_161_1007
*8251 FILLER_0_161_1009
*8252 FILLER_0_161_1021
*8253 FILLER_0_161_1033
*8254 FILLER_0_161_1045
*8255 FILLER_0_161_105
*8256 FILLER_0_161_1057
*8257 FILLER_0_161_111
*8258 FILLER_0_161_113
*8259 FILLER_0_161_125
*8260 FILLER_0_161_137
*8261 FILLER_0_161_149
*8262 FILLER_0_161_15
*8263 FILLER_0_161_161
*8264 FILLER_0_161_167
*8265 FILLER_0_161_169
*8266 FILLER_0_161_181
*8267 FILLER_0_161_193
*8268 FILLER_0_161_205
*8269 FILLER_0_161_217
*8270 FILLER_0_161_223
*8271 FILLER_0_161_225
*8272 FILLER_0_161_237
*8273 FILLER_0_161_249
*8274 FILLER_0_161_261
*8275 FILLER_0_161_27
*8276 FILLER_0_161_273
*8277 FILLER_0_161_279
*8278 FILLER_0_161_281
*8279 FILLER_0_161_293
*8280 FILLER_0_161_3
*8281 FILLER_0_161_305
*8282 FILLER_0_161_317
*8283 FILLER_0_161_329
*8284 FILLER_0_161_335
*8285 FILLER_0_161_337
*8286 FILLER_0_161_349
*8287 FILLER_0_161_361
*8288 FILLER_0_161_373
*8289 FILLER_0_161_385
*8290 FILLER_0_161_39
*8291 FILLER_0_161_391
*8292 FILLER_0_161_393
*8293 FILLER_0_161_405
*8294 FILLER_0_161_417
*8295 FILLER_0_161_429
*8296 FILLER_0_161_441
*8297 FILLER_0_161_447
*8298 FILLER_0_161_449
*8299 FILLER_0_161_461
*8300 FILLER_0_161_473
*8301 FILLER_0_161_485
*8302 FILLER_0_161_497
*8303 FILLER_0_161_503
*8304 FILLER_0_161_505
*8305 FILLER_0_161_51
*8306 FILLER_0_161_517
*8307 FILLER_0_161_529
*8308 FILLER_0_161_541
*8309 FILLER_0_161_55
*8310 FILLER_0_161_553
*8311 FILLER_0_161_559
*8312 FILLER_0_161_561
*8313 FILLER_0_161_57
*8314 FILLER_0_161_573
*8315 FILLER_0_161_585
*8316 FILLER_0_161_597
*8317 FILLER_0_161_609
*8318 FILLER_0_161_615
*8319 FILLER_0_161_617
*8320 FILLER_0_161_629
*8321 FILLER_0_161_641
*8322 FILLER_0_161_653
*8323 FILLER_0_161_665
*8324 FILLER_0_161_671
*8325 FILLER_0_161_673
*8326 FILLER_0_161_685
*8327 FILLER_0_161_69
*8328 FILLER_0_161_697
*8329 FILLER_0_161_709
*8330 FILLER_0_161_721
*8331 FILLER_0_161_727
*8332 FILLER_0_161_729
*8333 FILLER_0_161_741
*8334 FILLER_0_161_753
*8335 FILLER_0_161_765
*8336 FILLER_0_161_777
*8337 FILLER_0_161_783
*8338 FILLER_0_161_785
*8339 FILLER_0_161_797
*8340 FILLER_0_161_809
*8341 FILLER_0_161_81
*8342 FILLER_0_161_821
*8343 FILLER_0_161_833
*8344 FILLER_0_161_839
*8345 FILLER_0_161_841
*8346 FILLER_0_161_853
*8347 FILLER_0_161_865
*8348 FILLER_0_161_877
*8349 FILLER_0_161_889
*8350 FILLER_0_161_895
*8351 FILLER_0_161_897
*8352 FILLER_0_161_909
*8353 FILLER_0_161_921
*8354 FILLER_0_161_93
*8355 FILLER_0_161_933
*8356 FILLER_0_161_945
*8357 FILLER_0_161_951
*8358 FILLER_0_161_953
*8359 FILLER_0_161_965
*8360 FILLER_0_161_977
*8361 FILLER_0_161_989
*8362 FILLER_0_162_1005
*8363 FILLER_0_162_1017
*8364 FILLER_0_162_1029
*8365 FILLER_0_162_1035
*8366 FILLER_0_162_1037
*8367 FILLER_0_162_1049
*8368 FILLER_0_162_1057
*8369 FILLER_0_162_109
*8370 FILLER_0_162_121
*8371 FILLER_0_162_133
*8372 FILLER_0_162_139
*8373 FILLER_0_162_141
*8374 FILLER_0_162_15
*8375 FILLER_0_162_153
*8376 FILLER_0_162_165
*8377 FILLER_0_162_177
*8378 FILLER_0_162_189
*8379 FILLER_0_162_195
*8380 FILLER_0_162_197
*8381 FILLER_0_162_209
*8382 FILLER_0_162_221
*8383 FILLER_0_162_233
*8384 FILLER_0_162_245
*8385 FILLER_0_162_251
*8386 FILLER_0_162_253
*8387 FILLER_0_162_265
*8388 FILLER_0_162_27
*8389 FILLER_0_162_277
*8390 FILLER_0_162_289
*8391 FILLER_0_162_29
*8392 FILLER_0_162_3
*8393 FILLER_0_162_301
*8394 FILLER_0_162_307
*8395 FILLER_0_162_309
*8396 FILLER_0_162_321
*8397 FILLER_0_162_333
*8398 FILLER_0_162_345
*8399 FILLER_0_162_357
*8400 FILLER_0_162_363
*8401 FILLER_0_162_365
*8402 FILLER_0_162_377
*8403 FILLER_0_162_389
*8404 FILLER_0_162_401
*8405 FILLER_0_162_41
*8406 FILLER_0_162_413
*8407 FILLER_0_162_419
*8408 FILLER_0_162_421
*8409 FILLER_0_162_433
*8410 FILLER_0_162_445
*8411 FILLER_0_162_457
*8412 FILLER_0_162_469
*8413 FILLER_0_162_475
*8414 FILLER_0_162_477
*8415 FILLER_0_162_489
*8416 FILLER_0_162_501
*8417 FILLER_0_162_513
*8418 FILLER_0_162_525
*8419 FILLER_0_162_53
*8420 FILLER_0_162_531
*8421 FILLER_0_162_533
*8422 FILLER_0_162_545
*8423 FILLER_0_162_557
*8424 FILLER_0_162_569
*8425 FILLER_0_162_581
*8426 FILLER_0_162_587
*8427 FILLER_0_162_589
*8428 FILLER_0_162_601
*8429 FILLER_0_162_613
*8430 FILLER_0_162_625
*8431 FILLER_0_162_637
*8432 FILLER_0_162_643
*8433 FILLER_0_162_645
*8434 FILLER_0_162_65
*8435 FILLER_0_162_657
*8436 FILLER_0_162_669
*8437 FILLER_0_162_681
*8438 FILLER_0_162_693
*8439 FILLER_0_162_699
*8440 FILLER_0_162_701
*8441 FILLER_0_162_713
*8442 FILLER_0_162_725
*8443 FILLER_0_162_737
*8444 FILLER_0_162_749
*8445 FILLER_0_162_755
*8446 FILLER_0_162_757
*8447 FILLER_0_162_769
*8448 FILLER_0_162_77
*8449 FILLER_0_162_781
*8450 FILLER_0_162_793
*8451 FILLER_0_162_805
*8452 FILLER_0_162_811
*8453 FILLER_0_162_813
*8454 FILLER_0_162_825
*8455 FILLER_0_162_83
*8456 FILLER_0_162_837
*8457 FILLER_0_162_849
*8458 FILLER_0_162_85
*8459 FILLER_0_162_861
*8460 FILLER_0_162_867
*8461 FILLER_0_162_869
*8462 FILLER_0_162_881
*8463 FILLER_0_162_893
*8464 FILLER_0_162_905
*8465 FILLER_0_162_917
*8466 FILLER_0_162_923
*8467 FILLER_0_162_925
*8468 FILLER_0_162_937
*8469 FILLER_0_162_949
*8470 FILLER_0_162_961
*8471 FILLER_0_162_97
*8472 FILLER_0_162_973
*8473 FILLER_0_162_979
*8474 FILLER_0_162_981
*8475 FILLER_0_162_993
*8476 FILLER_0_163_1001
*8477 FILLER_0_163_1007
*8478 FILLER_0_163_1009
*8479 FILLER_0_163_1021
*8480 FILLER_0_163_1033
*8481 FILLER_0_163_1045
*8482 FILLER_0_163_105
*8483 FILLER_0_163_1057
*8484 FILLER_0_163_111
*8485 FILLER_0_163_113
*8486 FILLER_0_163_125
*8487 FILLER_0_163_137
*8488 FILLER_0_163_149
*8489 FILLER_0_163_15
*8490 FILLER_0_163_161
*8491 FILLER_0_163_167
*8492 FILLER_0_163_169
*8493 FILLER_0_163_181
*8494 FILLER_0_163_193
*8495 FILLER_0_163_205
*8496 FILLER_0_163_217
*8497 FILLER_0_163_223
*8498 FILLER_0_163_225
*8499 FILLER_0_163_237
*8500 FILLER_0_163_249
*8501 FILLER_0_163_261
*8502 FILLER_0_163_27
*8503 FILLER_0_163_273
*8504 FILLER_0_163_279
*8505 FILLER_0_163_281
*8506 FILLER_0_163_293
*8507 FILLER_0_163_3
*8508 FILLER_0_163_305
*8509 FILLER_0_163_317
*8510 FILLER_0_163_329
*8511 FILLER_0_163_335
*8512 FILLER_0_163_337
*8513 FILLER_0_163_349
*8514 FILLER_0_163_361
*8515 FILLER_0_163_373
*8516 FILLER_0_163_385
*8517 FILLER_0_163_39
*8518 FILLER_0_163_391
*8519 FILLER_0_163_393
*8520 FILLER_0_163_405
*8521 FILLER_0_163_417
*8522 FILLER_0_163_429
*8523 FILLER_0_163_441
*8524 FILLER_0_163_447
*8525 FILLER_0_163_449
*8526 FILLER_0_163_461
*8527 FILLER_0_163_473
*8528 FILLER_0_163_485
*8529 FILLER_0_163_497
*8530 FILLER_0_163_503
*8531 FILLER_0_163_505
*8532 FILLER_0_163_51
*8533 FILLER_0_163_517
*8534 FILLER_0_163_529
*8535 FILLER_0_163_541
*8536 FILLER_0_163_55
*8537 FILLER_0_163_553
*8538 FILLER_0_163_559
*8539 FILLER_0_163_561
*8540 FILLER_0_163_57
*8541 FILLER_0_163_573
*8542 FILLER_0_163_585
*8543 FILLER_0_163_597
*8544 FILLER_0_163_609
*8545 FILLER_0_163_615
*8546 FILLER_0_163_617
*8547 FILLER_0_163_629
*8548 FILLER_0_163_641
*8549 FILLER_0_163_653
*8550 FILLER_0_163_665
*8551 FILLER_0_163_671
*8552 FILLER_0_163_673
*8553 FILLER_0_163_685
*8554 FILLER_0_163_69
*8555 FILLER_0_163_697
*8556 FILLER_0_163_709
*8557 FILLER_0_163_721
*8558 FILLER_0_163_727
*8559 FILLER_0_163_729
*8560 FILLER_0_163_741
*8561 FILLER_0_163_753
*8562 FILLER_0_163_765
*8563 FILLER_0_163_777
*8564 FILLER_0_163_783
*8565 FILLER_0_163_785
*8566 FILLER_0_163_797
*8567 FILLER_0_163_809
*8568 FILLER_0_163_81
*8569 FILLER_0_163_821
*8570 FILLER_0_163_833
*8571 FILLER_0_163_839
*8572 FILLER_0_163_841
*8573 FILLER_0_163_853
*8574 FILLER_0_163_865
*8575 FILLER_0_163_877
*8576 FILLER_0_163_889
*8577 FILLER_0_163_895
*8578 FILLER_0_163_897
*8579 FILLER_0_163_909
*8580 FILLER_0_163_921
*8581 FILLER_0_163_93
*8582 FILLER_0_163_933
*8583 FILLER_0_163_945
*8584 FILLER_0_163_951
*8585 FILLER_0_163_953
*8586 FILLER_0_163_965
*8587 FILLER_0_163_977
*8588 FILLER_0_163_989
*8589 FILLER_0_164_1005
*8590 FILLER_0_164_1017
*8591 FILLER_0_164_1029
*8592 FILLER_0_164_1035
*8593 FILLER_0_164_1037
*8594 FILLER_0_164_1049
*8595 FILLER_0_164_1057
*8596 FILLER_0_164_109
*8597 FILLER_0_164_121
*8598 FILLER_0_164_133
*8599 FILLER_0_164_139
*8600 FILLER_0_164_141
*8601 FILLER_0_164_15
*8602 FILLER_0_164_153
*8603 FILLER_0_164_165
*8604 FILLER_0_164_177
*8605 FILLER_0_164_189
*8606 FILLER_0_164_195
*8607 FILLER_0_164_197
*8608 FILLER_0_164_209
*8609 FILLER_0_164_221
*8610 FILLER_0_164_233
*8611 FILLER_0_164_245
*8612 FILLER_0_164_251
*8613 FILLER_0_164_253
*8614 FILLER_0_164_265
*8615 FILLER_0_164_27
*8616 FILLER_0_164_277
*8617 FILLER_0_164_289
*8618 FILLER_0_164_29
*8619 FILLER_0_164_3
*8620 FILLER_0_164_301
*8621 FILLER_0_164_307
*8622 FILLER_0_164_309
*8623 FILLER_0_164_321
*8624 FILLER_0_164_333
*8625 FILLER_0_164_345
*8626 FILLER_0_164_357
*8627 FILLER_0_164_363
*8628 FILLER_0_164_365
*8629 FILLER_0_164_377
*8630 FILLER_0_164_389
*8631 FILLER_0_164_401
*8632 FILLER_0_164_41
*8633 FILLER_0_164_413
*8634 FILLER_0_164_419
*8635 FILLER_0_164_421
*8636 FILLER_0_164_433
*8637 FILLER_0_164_445
*8638 FILLER_0_164_457
*8639 FILLER_0_164_469
*8640 FILLER_0_164_475
*8641 FILLER_0_164_477
*8642 FILLER_0_164_489
*8643 FILLER_0_164_501
*8644 FILLER_0_164_513
*8645 FILLER_0_164_525
*8646 FILLER_0_164_53
*8647 FILLER_0_164_531
*8648 FILLER_0_164_533
*8649 FILLER_0_164_545
*8650 FILLER_0_164_557
*8651 FILLER_0_164_569
*8652 FILLER_0_164_581
*8653 FILLER_0_164_587
*8654 FILLER_0_164_589
*8655 FILLER_0_164_601
*8656 FILLER_0_164_613
*8657 FILLER_0_164_625
*8658 FILLER_0_164_637
*8659 FILLER_0_164_643
*8660 FILLER_0_164_645
*8661 FILLER_0_164_65
*8662 FILLER_0_164_657
*8663 FILLER_0_164_669
*8664 FILLER_0_164_681
*8665 FILLER_0_164_693
*8666 FILLER_0_164_699
*8667 FILLER_0_164_701
*8668 FILLER_0_164_713
*8669 FILLER_0_164_725
*8670 FILLER_0_164_737
*8671 FILLER_0_164_749
*8672 FILLER_0_164_755
*8673 FILLER_0_164_757
*8674 FILLER_0_164_769
*8675 FILLER_0_164_77
*8676 FILLER_0_164_781
*8677 FILLER_0_164_793
*8678 FILLER_0_164_805
*8679 FILLER_0_164_811
*8680 FILLER_0_164_813
*8681 FILLER_0_164_825
*8682 FILLER_0_164_83
*8683 FILLER_0_164_837
*8684 FILLER_0_164_849
*8685 FILLER_0_164_85
*8686 FILLER_0_164_861
*8687 FILLER_0_164_867
*8688 FILLER_0_164_869
*8689 FILLER_0_164_881
*8690 FILLER_0_164_893
*8691 FILLER_0_164_905
*8692 FILLER_0_164_917
*8693 FILLER_0_164_923
*8694 FILLER_0_164_925
*8695 FILLER_0_164_937
*8696 FILLER_0_164_949
*8697 FILLER_0_164_961
*8698 FILLER_0_164_97
*8699 FILLER_0_164_973
*8700 FILLER_0_164_979
*8701 FILLER_0_164_981
*8702 FILLER_0_164_993
*8703 FILLER_0_165_1001
*8704 FILLER_0_165_1007
*8705 FILLER_0_165_1009
*8706 FILLER_0_165_1021
*8707 FILLER_0_165_1033
*8708 FILLER_0_165_1045
*8709 FILLER_0_165_105
*8710 FILLER_0_165_1057
*8711 FILLER_0_165_111
*8712 FILLER_0_165_113
*8713 FILLER_0_165_125
*8714 FILLER_0_165_137
*8715 FILLER_0_165_149
*8716 FILLER_0_165_15
*8717 FILLER_0_165_161
*8718 FILLER_0_165_167
*8719 FILLER_0_165_169
*8720 FILLER_0_165_181
*8721 FILLER_0_165_193
*8722 FILLER_0_165_205
*8723 FILLER_0_165_217
*8724 FILLER_0_165_223
*8725 FILLER_0_165_225
*8726 FILLER_0_165_237
*8727 FILLER_0_165_249
*8728 FILLER_0_165_261
*8729 FILLER_0_165_27
*8730 FILLER_0_165_273
*8731 FILLER_0_165_279
*8732 FILLER_0_165_281
*8733 FILLER_0_165_293
*8734 FILLER_0_165_3
*8735 FILLER_0_165_305
*8736 FILLER_0_165_317
*8737 FILLER_0_165_329
*8738 FILLER_0_165_335
*8739 FILLER_0_165_337
*8740 FILLER_0_165_349
*8741 FILLER_0_165_361
*8742 FILLER_0_165_373
*8743 FILLER_0_165_385
*8744 FILLER_0_165_39
*8745 FILLER_0_165_391
*8746 FILLER_0_165_393
*8747 FILLER_0_165_405
*8748 FILLER_0_165_417
*8749 FILLER_0_165_429
*8750 FILLER_0_165_441
*8751 FILLER_0_165_447
*8752 FILLER_0_165_449
*8753 FILLER_0_165_461
*8754 FILLER_0_165_473
*8755 FILLER_0_165_485
*8756 FILLER_0_165_497
*8757 FILLER_0_165_503
*8758 FILLER_0_165_505
*8759 FILLER_0_165_51
*8760 FILLER_0_165_517
*8761 FILLER_0_165_529
*8762 FILLER_0_165_541
*8763 FILLER_0_165_55
*8764 FILLER_0_165_553
*8765 FILLER_0_165_559
*8766 FILLER_0_165_561
*8767 FILLER_0_165_57
*8768 FILLER_0_165_573
*8769 FILLER_0_165_585
*8770 FILLER_0_165_597
*8771 FILLER_0_165_609
*8772 FILLER_0_165_615
*8773 FILLER_0_165_617
*8774 FILLER_0_165_629
*8775 FILLER_0_165_641
*8776 FILLER_0_165_653
*8777 FILLER_0_165_665
*8778 FILLER_0_165_671
*8779 FILLER_0_165_673
*8780 FILLER_0_165_685
*8781 FILLER_0_165_69
*8782 FILLER_0_165_697
*8783 FILLER_0_165_709
*8784 FILLER_0_165_721
*8785 FILLER_0_165_727
*8786 FILLER_0_165_729
*8787 FILLER_0_165_741
*8788 FILLER_0_165_753
*8789 FILLER_0_165_765
*8790 FILLER_0_165_777
*8791 FILLER_0_165_783
*8792 FILLER_0_165_785
*8793 FILLER_0_165_797
*8794 FILLER_0_165_809
*8795 FILLER_0_165_81
*8796 FILLER_0_165_821
*8797 FILLER_0_165_833
*8798 FILLER_0_165_839
*8799 FILLER_0_165_841
*8800 FILLER_0_165_853
*8801 FILLER_0_165_865
*8802 FILLER_0_165_877
*8803 FILLER_0_165_889
*8804 FILLER_0_165_895
*8805 FILLER_0_165_897
*8806 FILLER_0_165_909
*8807 FILLER_0_165_921
*8808 FILLER_0_165_93
*8809 FILLER_0_165_933
*8810 FILLER_0_165_945
*8811 FILLER_0_165_951
*8812 FILLER_0_165_953
*8813 FILLER_0_165_965
*8814 FILLER_0_165_977
*8815 FILLER_0_165_989
*8816 FILLER_0_166_1005
*8817 FILLER_0_166_1017
*8818 FILLER_0_166_1029
*8819 FILLER_0_166_1035
*8820 FILLER_0_166_1037
*8821 FILLER_0_166_1049
*8822 FILLER_0_166_1057
*8823 FILLER_0_166_109
*8824 FILLER_0_166_121
*8825 FILLER_0_166_133
*8826 FILLER_0_166_139
*8827 FILLER_0_166_141
*8828 FILLER_0_166_15
*8829 FILLER_0_166_153
*8830 FILLER_0_166_165
*8831 FILLER_0_166_177
*8832 FILLER_0_166_189
*8833 FILLER_0_166_195
*8834 FILLER_0_166_197
*8835 FILLER_0_166_209
*8836 FILLER_0_166_221
*8837 FILLER_0_166_233
*8838 FILLER_0_166_245
*8839 FILLER_0_166_251
*8840 FILLER_0_166_253
*8841 FILLER_0_166_265
*8842 FILLER_0_166_27
*8843 FILLER_0_166_277
*8844 FILLER_0_166_289
*8845 FILLER_0_166_29
*8846 FILLER_0_166_3
*8847 FILLER_0_166_301
*8848 FILLER_0_166_307
*8849 FILLER_0_166_309
*8850 FILLER_0_166_321
*8851 FILLER_0_166_333
*8852 FILLER_0_166_345
*8853 FILLER_0_166_357
*8854 FILLER_0_166_363
*8855 FILLER_0_166_365
*8856 FILLER_0_166_377
*8857 FILLER_0_166_389
*8858 FILLER_0_166_401
*8859 FILLER_0_166_41
*8860 FILLER_0_166_413
*8861 FILLER_0_166_419
*8862 FILLER_0_166_421
*8863 FILLER_0_166_433
*8864 FILLER_0_166_445
*8865 FILLER_0_166_457
*8866 FILLER_0_166_469
*8867 FILLER_0_166_475
*8868 FILLER_0_166_477
*8869 FILLER_0_166_489
*8870 FILLER_0_166_501
*8871 FILLER_0_166_513
*8872 FILLER_0_166_525
*8873 FILLER_0_166_53
*8874 FILLER_0_166_531
*8875 FILLER_0_166_533
*8876 FILLER_0_166_545
*8877 FILLER_0_166_557
*8878 FILLER_0_166_569
*8879 FILLER_0_166_581
*8880 FILLER_0_166_587
*8881 FILLER_0_166_589
*8882 FILLER_0_166_601
*8883 FILLER_0_166_613
*8884 FILLER_0_166_625
*8885 FILLER_0_166_637
*8886 FILLER_0_166_643
*8887 FILLER_0_166_645
*8888 FILLER_0_166_65
*8889 FILLER_0_166_657
*8890 FILLER_0_166_669
*8891 FILLER_0_166_681
*8892 FILLER_0_166_693
*8893 FILLER_0_166_699
*8894 FILLER_0_166_701
*8895 FILLER_0_166_713
*8896 FILLER_0_166_725
*8897 FILLER_0_166_737
*8898 FILLER_0_166_749
*8899 FILLER_0_166_755
*8900 FILLER_0_166_757
*8901 FILLER_0_166_769
*8902 FILLER_0_166_77
*8903 FILLER_0_166_781
*8904 FILLER_0_166_793
*8905 FILLER_0_166_805
*8906 FILLER_0_166_811
*8907 FILLER_0_166_813
*8908 FILLER_0_166_825
*8909 FILLER_0_166_83
*8910 FILLER_0_166_837
*8911 FILLER_0_166_849
*8912 FILLER_0_166_85
*8913 FILLER_0_166_861
*8914 FILLER_0_166_867
*8915 FILLER_0_166_869
*8916 FILLER_0_166_881
*8917 FILLER_0_166_893
*8918 FILLER_0_166_905
*8919 FILLER_0_166_917
*8920 FILLER_0_166_923
*8921 FILLER_0_166_925
*8922 FILLER_0_166_937
*8923 FILLER_0_166_949
*8924 FILLER_0_166_961
*8925 FILLER_0_166_97
*8926 FILLER_0_166_973
*8927 FILLER_0_166_979
*8928 FILLER_0_166_981
*8929 FILLER_0_166_993
*8930 FILLER_0_167_1001
*8931 FILLER_0_167_1007
*8932 FILLER_0_167_1009
*8933 FILLER_0_167_1021
*8934 FILLER_0_167_1033
*8935 FILLER_0_167_1045
*8936 FILLER_0_167_105
*8937 FILLER_0_167_1057
*8938 FILLER_0_167_111
*8939 FILLER_0_167_113
*8940 FILLER_0_167_125
*8941 FILLER_0_167_137
*8942 FILLER_0_167_149
*8943 FILLER_0_167_15
*8944 FILLER_0_167_161
*8945 FILLER_0_167_167
*8946 FILLER_0_167_169
*8947 FILLER_0_167_181
*8948 FILLER_0_167_193
*8949 FILLER_0_167_205
*8950 FILLER_0_167_217
*8951 FILLER_0_167_223
*8952 FILLER_0_167_225
*8953 FILLER_0_167_237
*8954 FILLER_0_167_249
*8955 FILLER_0_167_261
*8956 FILLER_0_167_27
*8957 FILLER_0_167_273
*8958 FILLER_0_167_279
*8959 FILLER_0_167_281
*8960 FILLER_0_167_293
*8961 FILLER_0_167_3
*8962 FILLER_0_167_305
*8963 FILLER_0_167_317
*8964 FILLER_0_167_329
*8965 FILLER_0_167_335
*8966 FILLER_0_167_337
*8967 FILLER_0_167_349
*8968 FILLER_0_167_361
*8969 FILLER_0_167_373
*8970 FILLER_0_167_385
*8971 FILLER_0_167_39
*8972 FILLER_0_167_391
*8973 FILLER_0_167_393
*8974 FILLER_0_167_405
*8975 FILLER_0_167_417
*8976 FILLER_0_167_429
*8977 FILLER_0_167_441
*8978 FILLER_0_167_447
*8979 FILLER_0_167_449
*8980 FILLER_0_167_461
*8981 FILLER_0_167_473
*8982 FILLER_0_167_485
*8983 FILLER_0_167_497
*8984 FILLER_0_167_503
*8985 FILLER_0_167_505
*8986 FILLER_0_167_51
*8987 FILLER_0_167_517
*8988 FILLER_0_167_529
*8989 FILLER_0_167_541
*8990 FILLER_0_167_55
*8991 FILLER_0_167_553
*8992 FILLER_0_167_559
*8993 FILLER_0_167_561
*8994 FILLER_0_167_57
*8995 FILLER_0_167_573
*8996 FILLER_0_167_585
*8997 FILLER_0_167_597
*8998 FILLER_0_167_609
*8999 FILLER_0_167_615
*9000 FILLER_0_167_617
*9001 FILLER_0_167_629
*9002 FILLER_0_167_641
*9003 FILLER_0_167_653
*9004 FILLER_0_167_665
*9005 FILLER_0_167_671
*9006 FILLER_0_167_673
*9007 FILLER_0_167_685
*9008 FILLER_0_167_69
*9009 FILLER_0_167_697
*9010 FILLER_0_167_709
*9011 FILLER_0_167_721
*9012 FILLER_0_167_727
*9013 FILLER_0_167_729
*9014 FILLER_0_167_741
*9015 FILLER_0_167_753
*9016 FILLER_0_167_765
*9017 FILLER_0_167_777
*9018 FILLER_0_167_783
*9019 FILLER_0_167_785
*9020 FILLER_0_167_797
*9021 FILLER_0_167_809
*9022 FILLER_0_167_81
*9023 FILLER_0_167_821
*9024 FILLER_0_167_833
*9025 FILLER_0_167_839
*9026 FILLER_0_167_841
*9027 FILLER_0_167_853
*9028 FILLER_0_167_865
*9029 FILLER_0_167_877
*9030 FILLER_0_167_889
*9031 FILLER_0_167_895
*9032 FILLER_0_167_897
*9033 FILLER_0_167_909
*9034 FILLER_0_167_921
*9035 FILLER_0_167_93
*9036 FILLER_0_167_933
*9037 FILLER_0_167_945
*9038 FILLER_0_167_951
*9039 FILLER_0_167_953
*9040 FILLER_0_167_965
*9041 FILLER_0_167_977
*9042 FILLER_0_167_989
*9043 FILLER_0_168_1005
*9044 FILLER_0_168_1017
*9045 FILLER_0_168_1029
*9046 FILLER_0_168_1035
*9047 FILLER_0_168_1037
*9048 FILLER_0_168_1049
*9049 FILLER_0_168_1057
*9050 FILLER_0_168_109
*9051 FILLER_0_168_11
*9052 FILLER_0_168_121
*9053 FILLER_0_168_133
*9054 FILLER_0_168_139
*9055 FILLER_0_168_141
*9056 FILLER_0_168_153
*9057 FILLER_0_168_165
*9058 FILLER_0_168_177
*9059 FILLER_0_168_189
*9060 FILLER_0_168_195
*9061 FILLER_0_168_197
*9062 FILLER_0_168_209
*9063 FILLER_0_168_221
*9064 FILLER_0_168_23
*9065 FILLER_0_168_233
*9066 FILLER_0_168_245
*9067 FILLER_0_168_251
*9068 FILLER_0_168_253
*9069 FILLER_0_168_265
*9070 FILLER_0_168_27
*9071 FILLER_0_168_277
*9072 FILLER_0_168_289
*9073 FILLER_0_168_29
*9074 FILLER_0_168_301
*9075 FILLER_0_168_307
*9076 FILLER_0_168_309
*9077 FILLER_0_168_321
*9078 FILLER_0_168_333
*9079 FILLER_0_168_345
*9080 FILLER_0_168_357
*9081 FILLER_0_168_363
*9082 FILLER_0_168_365
*9083 FILLER_0_168_377
*9084 FILLER_0_168_389
*9085 FILLER_0_168_401
*9086 FILLER_0_168_41
*9087 FILLER_0_168_413
*9088 FILLER_0_168_419
*9089 FILLER_0_168_421
*9090 FILLER_0_168_433
*9091 FILLER_0_168_445
*9092 FILLER_0_168_457
*9093 FILLER_0_168_469
*9094 FILLER_0_168_475
*9095 FILLER_0_168_477
*9096 FILLER_0_168_489
*9097 FILLER_0_168_501
*9098 FILLER_0_168_513
*9099 FILLER_0_168_525
*9100 FILLER_0_168_53
*9101 FILLER_0_168_531
*9102 FILLER_0_168_533
*9103 FILLER_0_168_545
*9104 FILLER_0_168_557
*9105 FILLER_0_168_569
*9106 FILLER_0_168_581
*9107 FILLER_0_168_587
*9108 FILLER_0_168_589
*9109 FILLER_0_168_601
*9110 FILLER_0_168_613
*9111 FILLER_0_168_625
*9112 FILLER_0_168_637
*9113 FILLER_0_168_643
*9114 FILLER_0_168_645
*9115 FILLER_0_168_65
*9116 FILLER_0_168_657
*9117 FILLER_0_168_669
*9118 FILLER_0_168_681
*9119 FILLER_0_168_693
*9120 FILLER_0_168_699
*9121 FILLER_0_168_7
*9122 FILLER_0_168_701
*9123 FILLER_0_168_713
*9124 FILLER_0_168_725
*9125 FILLER_0_168_737
*9126 FILLER_0_168_749
*9127 FILLER_0_168_755
*9128 FILLER_0_168_757
*9129 FILLER_0_168_769
*9130 FILLER_0_168_77
*9131 FILLER_0_168_781
*9132 FILLER_0_168_793
*9133 FILLER_0_168_805
*9134 FILLER_0_168_811
*9135 FILLER_0_168_813
*9136 FILLER_0_168_825
*9137 FILLER_0_168_83
*9138 FILLER_0_168_837
*9139 FILLER_0_168_849
*9140 FILLER_0_168_85
*9141 FILLER_0_168_861
*9142 FILLER_0_168_867
*9143 FILLER_0_168_869
*9144 FILLER_0_168_881
*9145 FILLER_0_168_893
*9146 FILLER_0_168_905
*9147 FILLER_0_168_917
*9148 FILLER_0_168_923
*9149 FILLER_0_168_925
*9150 FILLER_0_168_937
*9151 FILLER_0_168_949
*9152 FILLER_0_168_961
*9153 FILLER_0_168_97
*9154 FILLER_0_168_973
*9155 FILLER_0_168_979
*9156 FILLER_0_168_981
*9157 FILLER_0_168_993
*9158 FILLER_0_169_1001
*9159 FILLER_0_169_1007
*9160 FILLER_0_169_1009
*9161 FILLER_0_169_1021
*9162 FILLER_0_169_1033
*9163 FILLER_0_169_1045
*9164 FILLER_0_169_105
*9165 FILLER_0_169_1057
*9166 FILLER_0_169_111
*9167 FILLER_0_169_113
*9168 FILLER_0_169_125
*9169 FILLER_0_169_137
*9170 FILLER_0_169_149
*9171 FILLER_0_169_15
*9172 FILLER_0_169_161
*9173 FILLER_0_169_167
*9174 FILLER_0_169_169
*9175 FILLER_0_169_181
*9176 FILLER_0_169_193
*9177 FILLER_0_169_205
*9178 FILLER_0_169_217
*9179 FILLER_0_169_223
*9180 FILLER_0_169_225
*9181 FILLER_0_169_237
*9182 FILLER_0_169_249
*9183 FILLER_0_169_261
*9184 FILLER_0_169_27
*9185 FILLER_0_169_273
*9186 FILLER_0_169_279
*9187 FILLER_0_169_281
*9188 FILLER_0_169_293
*9189 FILLER_0_169_3
*9190 FILLER_0_169_305
*9191 FILLER_0_169_317
*9192 FILLER_0_169_329
*9193 FILLER_0_169_335
*9194 FILLER_0_169_337
*9195 FILLER_0_169_349
*9196 FILLER_0_169_361
*9197 FILLER_0_169_373
*9198 FILLER_0_169_385
*9199 FILLER_0_169_39
*9200 FILLER_0_169_391
*9201 FILLER_0_169_393
*9202 FILLER_0_169_405
*9203 FILLER_0_169_417
*9204 FILLER_0_169_429
*9205 FILLER_0_169_441
*9206 FILLER_0_169_447
*9207 FILLER_0_169_449
*9208 FILLER_0_169_461
*9209 FILLER_0_169_473
*9210 FILLER_0_169_485
*9211 FILLER_0_169_497
*9212 FILLER_0_169_503
*9213 FILLER_0_169_505
*9214 FILLER_0_169_51
*9215 FILLER_0_169_517
*9216 FILLER_0_169_529
*9217 FILLER_0_169_541
*9218 FILLER_0_169_55
*9219 FILLER_0_169_553
*9220 FILLER_0_169_559
*9221 FILLER_0_169_561
*9222 FILLER_0_169_57
*9223 FILLER_0_169_573
*9224 FILLER_0_169_585
*9225 FILLER_0_169_597
*9226 FILLER_0_169_609
*9227 FILLER_0_169_615
*9228 FILLER_0_169_617
*9229 FILLER_0_169_629
*9230 FILLER_0_169_641
*9231 FILLER_0_169_653
*9232 FILLER_0_169_665
*9233 FILLER_0_169_671
*9234 FILLER_0_169_673
*9235 FILLER_0_169_685
*9236 FILLER_0_169_69
*9237 FILLER_0_169_697
*9238 FILLER_0_169_709
*9239 FILLER_0_169_721
*9240 FILLER_0_169_727
*9241 FILLER_0_169_729
*9242 FILLER_0_169_741
*9243 FILLER_0_169_753
*9244 FILLER_0_169_765
*9245 FILLER_0_169_777
*9246 FILLER_0_169_783
*9247 FILLER_0_169_785
*9248 FILLER_0_169_797
*9249 FILLER_0_169_809
*9250 FILLER_0_169_81
*9251 FILLER_0_169_821
*9252 FILLER_0_169_833
*9253 FILLER_0_169_839
*9254 FILLER_0_169_841
*9255 FILLER_0_169_853
*9256 FILLER_0_169_865
*9257 FILLER_0_169_877
*9258 FILLER_0_169_889
*9259 FILLER_0_169_895
*9260 FILLER_0_169_897
*9261 FILLER_0_169_909
*9262 FILLER_0_169_921
*9263 FILLER_0_169_93
*9264 FILLER_0_169_933
*9265 FILLER_0_169_945
*9266 FILLER_0_169_951
*9267 FILLER_0_169_953
*9268 FILLER_0_169_965
*9269 FILLER_0_169_977
*9270 FILLER_0_169_989
*9271 FILLER_0_16_1005
*9272 FILLER_0_16_1017
*9273 FILLER_0_16_1029
*9274 FILLER_0_16_1035
*9275 FILLER_0_16_1037
*9276 FILLER_0_16_1049
*9277 FILLER_0_16_1057
*9278 FILLER_0_16_109
*9279 FILLER_0_16_121
*9280 FILLER_0_16_133
*9281 FILLER_0_16_139
*9282 FILLER_0_16_141
*9283 FILLER_0_16_15
*9284 FILLER_0_16_153
*9285 FILLER_0_16_165
*9286 FILLER_0_16_177
*9287 FILLER_0_16_189
*9288 FILLER_0_16_195
*9289 FILLER_0_16_197
*9290 FILLER_0_16_209
*9291 FILLER_0_16_221
*9292 FILLER_0_16_233
*9293 FILLER_0_16_245
*9294 FILLER_0_16_251
*9295 FILLER_0_16_253
*9296 FILLER_0_16_265
*9297 FILLER_0_16_27
*9298 FILLER_0_16_277
*9299 FILLER_0_16_289
*9300 FILLER_0_16_29
*9301 FILLER_0_16_3
*9302 FILLER_0_16_301
*9303 FILLER_0_16_307
*9304 FILLER_0_16_309
*9305 FILLER_0_16_321
*9306 FILLER_0_16_333
*9307 FILLER_0_16_345
*9308 FILLER_0_16_357
*9309 FILLER_0_16_363
*9310 FILLER_0_16_365
*9311 FILLER_0_16_377
*9312 FILLER_0_16_389
*9313 FILLER_0_16_401
*9314 FILLER_0_16_41
*9315 FILLER_0_16_413
*9316 FILLER_0_16_419
*9317 FILLER_0_16_421
*9318 FILLER_0_16_433
*9319 FILLER_0_16_445
*9320 FILLER_0_16_457
*9321 FILLER_0_16_469
*9322 FILLER_0_16_475
*9323 FILLER_0_16_477
*9324 FILLER_0_16_489
*9325 FILLER_0_16_501
*9326 FILLER_0_16_513
*9327 FILLER_0_16_525
*9328 FILLER_0_16_53
*9329 FILLER_0_16_531
*9330 FILLER_0_16_533
*9331 FILLER_0_16_545
*9332 FILLER_0_16_557
*9333 FILLER_0_16_569
*9334 FILLER_0_16_581
*9335 FILLER_0_16_587
*9336 FILLER_0_16_589
*9337 FILLER_0_16_601
*9338 FILLER_0_16_613
*9339 FILLER_0_16_625
*9340 FILLER_0_16_637
*9341 FILLER_0_16_643
*9342 FILLER_0_16_645
*9343 FILLER_0_16_65
*9344 FILLER_0_16_657
*9345 FILLER_0_16_669
*9346 FILLER_0_16_681
*9347 FILLER_0_16_693
*9348 FILLER_0_16_699
*9349 FILLER_0_16_701
*9350 FILLER_0_16_713
*9351 FILLER_0_16_725
*9352 FILLER_0_16_737
*9353 FILLER_0_16_749
*9354 FILLER_0_16_755
*9355 FILLER_0_16_757
*9356 FILLER_0_16_769
*9357 FILLER_0_16_77
*9358 FILLER_0_16_781
*9359 FILLER_0_16_793
*9360 FILLER_0_16_805
*9361 FILLER_0_16_811
*9362 FILLER_0_16_813
*9363 FILLER_0_16_825
*9364 FILLER_0_16_83
*9365 FILLER_0_16_837
*9366 FILLER_0_16_849
*9367 FILLER_0_16_85
*9368 FILLER_0_16_861
*9369 FILLER_0_16_867
*9370 FILLER_0_16_869
*9371 FILLER_0_16_881
*9372 FILLER_0_16_893
*9373 FILLER_0_16_905
*9374 FILLER_0_16_917
*9375 FILLER_0_16_923
*9376 FILLER_0_16_925
*9377 FILLER_0_16_937
*9378 FILLER_0_16_949
*9379 FILLER_0_16_961
*9380 FILLER_0_16_97
*9381 FILLER_0_16_973
*9382 FILLER_0_16_979
*9383 FILLER_0_16_981
*9384 FILLER_0_16_993
*9385 FILLER_0_170_1005
*9386 FILLER_0_170_1017
*9387 FILLER_0_170_1029
*9388 FILLER_0_170_1035
*9389 FILLER_0_170_1037
*9390 FILLER_0_170_1049
*9391 FILLER_0_170_1057
*9392 FILLER_0_170_109
*9393 FILLER_0_170_121
*9394 FILLER_0_170_133
*9395 FILLER_0_170_139
*9396 FILLER_0_170_141
*9397 FILLER_0_170_15
*9398 FILLER_0_170_153
*9399 FILLER_0_170_165
*9400 FILLER_0_170_177
*9401 FILLER_0_170_189
*9402 FILLER_0_170_195
*9403 FILLER_0_170_197
*9404 FILLER_0_170_209
*9405 FILLER_0_170_221
*9406 FILLER_0_170_233
*9407 FILLER_0_170_245
*9408 FILLER_0_170_251
*9409 FILLER_0_170_253
*9410 FILLER_0_170_265
*9411 FILLER_0_170_27
*9412 FILLER_0_170_277
*9413 FILLER_0_170_289
*9414 FILLER_0_170_29
*9415 FILLER_0_170_3
*9416 FILLER_0_170_301
*9417 FILLER_0_170_307
*9418 FILLER_0_170_309
*9419 FILLER_0_170_321
*9420 FILLER_0_170_333
*9421 FILLER_0_170_345
*9422 FILLER_0_170_357
*9423 FILLER_0_170_363
*9424 FILLER_0_170_365
*9425 FILLER_0_170_377
*9426 FILLER_0_170_389
*9427 FILLER_0_170_401
*9428 FILLER_0_170_41
*9429 FILLER_0_170_413
*9430 FILLER_0_170_419
*9431 FILLER_0_170_421
*9432 FILLER_0_170_433
*9433 FILLER_0_170_445
*9434 FILLER_0_170_457
*9435 FILLER_0_170_469
*9436 FILLER_0_170_475
*9437 FILLER_0_170_477
*9438 FILLER_0_170_489
*9439 FILLER_0_170_501
*9440 FILLER_0_170_513
*9441 FILLER_0_170_525
*9442 FILLER_0_170_53
*9443 FILLER_0_170_531
*9444 FILLER_0_170_533
*9445 FILLER_0_170_545
*9446 FILLER_0_170_557
*9447 FILLER_0_170_569
*9448 FILLER_0_170_581
*9449 FILLER_0_170_587
*9450 FILLER_0_170_589
*9451 FILLER_0_170_601
*9452 FILLER_0_170_613
*9453 FILLER_0_170_625
*9454 FILLER_0_170_637
*9455 FILLER_0_170_643
*9456 FILLER_0_170_645
*9457 FILLER_0_170_65
*9458 FILLER_0_170_657
*9459 FILLER_0_170_669
*9460 FILLER_0_170_681
*9461 FILLER_0_170_693
*9462 FILLER_0_170_699
*9463 FILLER_0_170_701
*9464 FILLER_0_170_713
*9465 FILLER_0_170_725
*9466 FILLER_0_170_737
*9467 FILLER_0_170_749
*9468 FILLER_0_170_755
*9469 FILLER_0_170_757
*9470 FILLER_0_170_769
*9471 FILLER_0_170_77
*9472 FILLER_0_170_781
*9473 FILLER_0_170_793
*9474 FILLER_0_170_805
*9475 FILLER_0_170_811
*9476 FILLER_0_170_813
*9477 FILLER_0_170_825
*9478 FILLER_0_170_83
*9479 FILLER_0_170_837
*9480 FILLER_0_170_849
*9481 FILLER_0_170_85
*9482 FILLER_0_170_861
*9483 FILLER_0_170_867
*9484 FILLER_0_170_869
*9485 FILLER_0_170_881
*9486 FILLER_0_170_893
*9487 FILLER_0_170_905
*9488 FILLER_0_170_917
*9489 FILLER_0_170_923
*9490 FILLER_0_170_925
*9491 FILLER_0_170_937
*9492 FILLER_0_170_949
*9493 FILLER_0_170_961
*9494 FILLER_0_170_97
*9495 FILLER_0_170_973
*9496 FILLER_0_170_979
*9497 FILLER_0_170_981
*9498 FILLER_0_170_993
*9499 FILLER_0_171_1001
*9500 FILLER_0_171_1007
*9501 FILLER_0_171_1009
*9502 FILLER_0_171_1021
*9503 FILLER_0_171_1033
*9504 FILLER_0_171_1045
*9505 FILLER_0_171_105
*9506 FILLER_0_171_1057
*9507 FILLER_0_171_111
*9508 FILLER_0_171_113
*9509 FILLER_0_171_125
*9510 FILLER_0_171_137
*9511 FILLER_0_171_149
*9512 FILLER_0_171_15
*9513 FILLER_0_171_161
*9514 FILLER_0_171_167
*9515 FILLER_0_171_169
*9516 FILLER_0_171_181
*9517 FILLER_0_171_193
*9518 FILLER_0_171_205
*9519 FILLER_0_171_217
*9520 FILLER_0_171_223
*9521 FILLER_0_171_225
*9522 FILLER_0_171_237
*9523 FILLER_0_171_249
*9524 FILLER_0_171_261
*9525 FILLER_0_171_27
*9526 FILLER_0_171_273
*9527 FILLER_0_171_279
*9528 FILLER_0_171_281
*9529 FILLER_0_171_293
*9530 FILLER_0_171_3
*9531 FILLER_0_171_305
*9532 FILLER_0_171_317
*9533 FILLER_0_171_329
*9534 FILLER_0_171_335
*9535 FILLER_0_171_337
*9536 FILLER_0_171_349
*9537 FILLER_0_171_361
*9538 FILLER_0_171_373
*9539 FILLER_0_171_385
*9540 FILLER_0_171_39
*9541 FILLER_0_171_391
*9542 FILLER_0_171_393
*9543 FILLER_0_171_405
*9544 FILLER_0_171_417
*9545 FILLER_0_171_429
*9546 FILLER_0_171_441
*9547 FILLER_0_171_447
*9548 FILLER_0_171_449
*9549 FILLER_0_171_461
*9550 FILLER_0_171_473
*9551 FILLER_0_171_485
*9552 FILLER_0_171_497
*9553 FILLER_0_171_503
*9554 FILLER_0_171_505
*9555 FILLER_0_171_51
*9556 FILLER_0_171_517
*9557 FILLER_0_171_529
*9558 FILLER_0_171_541
*9559 FILLER_0_171_55
*9560 FILLER_0_171_553
*9561 FILLER_0_171_559
*9562 FILLER_0_171_561
*9563 FILLER_0_171_57
*9564 FILLER_0_171_573
*9565 FILLER_0_171_585
*9566 FILLER_0_171_597
*9567 FILLER_0_171_609
*9568 FILLER_0_171_615
*9569 FILLER_0_171_617
*9570 FILLER_0_171_629
*9571 FILLER_0_171_641
*9572 FILLER_0_171_653
*9573 FILLER_0_171_665
*9574 FILLER_0_171_671
*9575 FILLER_0_171_673
*9576 FILLER_0_171_685
*9577 FILLER_0_171_69
*9578 FILLER_0_171_697
*9579 FILLER_0_171_709
*9580 FILLER_0_171_721
*9581 FILLER_0_171_727
*9582 FILLER_0_171_729
*9583 FILLER_0_171_741
*9584 FILLER_0_171_753
*9585 FILLER_0_171_765
*9586 FILLER_0_171_777
*9587 FILLER_0_171_783
*9588 FILLER_0_171_785
*9589 FILLER_0_171_797
*9590 FILLER_0_171_809
*9591 FILLER_0_171_81
*9592 FILLER_0_171_821
*9593 FILLER_0_171_833
*9594 FILLER_0_171_839
*9595 FILLER_0_171_841
*9596 FILLER_0_171_853
*9597 FILLER_0_171_865
*9598 FILLER_0_171_877
*9599 FILLER_0_171_889
*9600 FILLER_0_171_895
*9601 FILLER_0_171_897
*9602 FILLER_0_171_909
*9603 FILLER_0_171_921
*9604 FILLER_0_171_93
*9605 FILLER_0_171_933
*9606 FILLER_0_171_945
*9607 FILLER_0_171_951
*9608 FILLER_0_171_953
*9609 FILLER_0_171_965
*9610 FILLER_0_171_977
*9611 FILLER_0_171_989
*9612 FILLER_0_172_1005
*9613 FILLER_0_172_1017
*9614 FILLER_0_172_1029
*9615 FILLER_0_172_1035
*9616 FILLER_0_172_1037
*9617 FILLER_0_172_1049
*9618 FILLER_0_172_1057
*9619 FILLER_0_172_109
*9620 FILLER_0_172_121
*9621 FILLER_0_172_133
*9622 FILLER_0_172_139
*9623 FILLER_0_172_141
*9624 FILLER_0_172_15
*9625 FILLER_0_172_153
*9626 FILLER_0_172_165
*9627 FILLER_0_172_177
*9628 FILLER_0_172_189
*9629 FILLER_0_172_195
*9630 FILLER_0_172_197
*9631 FILLER_0_172_209
*9632 FILLER_0_172_221
*9633 FILLER_0_172_233
*9634 FILLER_0_172_245
*9635 FILLER_0_172_251
*9636 FILLER_0_172_253
*9637 FILLER_0_172_265
*9638 FILLER_0_172_27
*9639 FILLER_0_172_277
*9640 FILLER_0_172_289
*9641 FILLER_0_172_29
*9642 FILLER_0_172_3
*9643 FILLER_0_172_301
*9644 FILLER_0_172_307
*9645 FILLER_0_172_309
*9646 FILLER_0_172_321
*9647 FILLER_0_172_333
*9648 FILLER_0_172_345
*9649 FILLER_0_172_357
*9650 FILLER_0_172_363
*9651 FILLER_0_172_365
*9652 FILLER_0_172_377
*9653 FILLER_0_172_389
*9654 FILLER_0_172_401
*9655 FILLER_0_172_41
*9656 FILLER_0_172_413
*9657 FILLER_0_172_419
*9658 FILLER_0_172_421
*9659 FILLER_0_172_433
*9660 FILLER_0_172_445
*9661 FILLER_0_172_457
*9662 FILLER_0_172_469
*9663 FILLER_0_172_475
*9664 FILLER_0_172_477
*9665 FILLER_0_172_489
*9666 FILLER_0_172_501
*9667 FILLER_0_172_513
*9668 FILLER_0_172_525
*9669 FILLER_0_172_53
*9670 FILLER_0_172_531
*9671 FILLER_0_172_533
*9672 FILLER_0_172_545
*9673 FILLER_0_172_557
*9674 FILLER_0_172_569
*9675 FILLER_0_172_581
*9676 FILLER_0_172_587
*9677 FILLER_0_172_589
*9678 FILLER_0_172_601
*9679 FILLER_0_172_613
*9680 FILLER_0_172_625
*9681 FILLER_0_172_637
*9682 FILLER_0_172_643
*9683 FILLER_0_172_645
*9684 FILLER_0_172_65
*9685 FILLER_0_172_657
*9686 FILLER_0_172_669
*9687 FILLER_0_172_681
*9688 FILLER_0_172_693
*9689 FILLER_0_172_699
*9690 FILLER_0_172_701
*9691 FILLER_0_172_713
*9692 FILLER_0_172_725
*9693 FILLER_0_172_737
*9694 FILLER_0_172_749
*9695 FILLER_0_172_755
*9696 FILLER_0_172_757
*9697 FILLER_0_172_769
*9698 FILLER_0_172_77
*9699 FILLER_0_172_781
*9700 FILLER_0_172_793
*9701 FILLER_0_172_805
*9702 FILLER_0_172_811
*9703 FILLER_0_172_813
*9704 FILLER_0_172_825
*9705 FILLER_0_172_83
*9706 FILLER_0_172_837
*9707 FILLER_0_172_849
*9708 FILLER_0_172_85
*9709 FILLER_0_172_861
*9710 FILLER_0_172_867
*9711 FILLER_0_172_869
*9712 FILLER_0_172_881
*9713 FILLER_0_172_893
*9714 FILLER_0_172_905
*9715 FILLER_0_172_917
*9716 FILLER_0_172_923
*9717 FILLER_0_172_925
*9718 FILLER_0_172_937
*9719 FILLER_0_172_949
*9720 FILLER_0_172_961
*9721 FILLER_0_172_97
*9722 FILLER_0_172_973
*9723 FILLER_0_172_979
*9724 FILLER_0_172_981
*9725 FILLER_0_172_993
*9726 FILLER_0_173_1001
*9727 FILLER_0_173_1007
*9728 FILLER_0_173_1009
*9729 FILLER_0_173_1021
*9730 FILLER_0_173_1033
*9731 FILLER_0_173_1045
*9732 FILLER_0_173_105
*9733 FILLER_0_173_1057
*9734 FILLER_0_173_111
*9735 FILLER_0_173_113
*9736 FILLER_0_173_125
*9737 FILLER_0_173_137
*9738 FILLER_0_173_149
*9739 FILLER_0_173_161
*9740 FILLER_0_173_167
*9741 FILLER_0_173_169
*9742 FILLER_0_173_18
*9743 FILLER_0_173_181
*9744 FILLER_0_173_193
*9745 FILLER_0_173_205
*9746 FILLER_0_173_217
*9747 FILLER_0_173_223
*9748 FILLER_0_173_225
*9749 FILLER_0_173_237
*9750 FILLER_0_173_249
*9751 FILLER_0_173_261
*9752 FILLER_0_173_273
*9753 FILLER_0_173_279
*9754 FILLER_0_173_281
*9755 FILLER_0_173_293
*9756 FILLER_0_173_30
*9757 FILLER_0_173_305
*9758 FILLER_0_173_317
*9759 FILLER_0_173_329
*9760 FILLER_0_173_335
*9761 FILLER_0_173_337
*9762 FILLER_0_173_349
*9763 FILLER_0_173_361
*9764 FILLER_0_173_373
*9765 FILLER_0_173_385
*9766 FILLER_0_173_391
*9767 FILLER_0_173_393
*9768 FILLER_0_173_405
*9769 FILLER_0_173_417
*9770 FILLER_0_173_42
*9771 FILLER_0_173_429
*9772 FILLER_0_173_441
*9773 FILLER_0_173_447
*9774 FILLER_0_173_449
*9775 FILLER_0_173_461
*9776 FILLER_0_173_473
*9777 FILLER_0_173_485
*9778 FILLER_0_173_497
*9779 FILLER_0_173_503
*9780 FILLER_0_173_505
*9781 FILLER_0_173_517
*9782 FILLER_0_173_529
*9783 FILLER_0_173_54
*9784 FILLER_0_173_541
*9785 FILLER_0_173_553
*9786 FILLER_0_173_559
*9787 FILLER_0_173_561
*9788 FILLER_0_173_57
*9789 FILLER_0_173_573
*9790 FILLER_0_173_585
*9791 FILLER_0_173_597
*9792 FILLER_0_173_6
*9793 FILLER_0_173_609
*9794 FILLER_0_173_615
*9795 FILLER_0_173_617
*9796 FILLER_0_173_629
*9797 FILLER_0_173_641
*9798 FILLER_0_173_653
*9799 FILLER_0_173_665
*9800 FILLER_0_173_671
*9801 FILLER_0_173_673
*9802 FILLER_0_173_685
*9803 FILLER_0_173_69
*9804 FILLER_0_173_697
*9805 FILLER_0_173_709
*9806 FILLER_0_173_721
*9807 FILLER_0_173_727
*9808 FILLER_0_173_729
*9809 FILLER_0_173_741
*9810 FILLER_0_173_753
*9811 FILLER_0_173_765
*9812 FILLER_0_173_777
*9813 FILLER_0_173_783
*9814 FILLER_0_173_785
*9815 FILLER_0_173_797
*9816 FILLER_0_173_809
*9817 FILLER_0_173_81
*9818 FILLER_0_173_821
*9819 FILLER_0_173_833
*9820 FILLER_0_173_839
*9821 FILLER_0_173_841
*9822 FILLER_0_173_853
*9823 FILLER_0_173_865
*9824 FILLER_0_173_877
*9825 FILLER_0_173_889
*9826 FILLER_0_173_895
*9827 FILLER_0_173_897
*9828 FILLER_0_173_909
*9829 FILLER_0_173_921
*9830 FILLER_0_173_93
*9831 FILLER_0_173_933
*9832 FILLER_0_173_945
*9833 FILLER_0_173_951
*9834 FILLER_0_173_953
*9835 FILLER_0_173_965
*9836 FILLER_0_173_977
*9837 FILLER_0_173_989
*9838 FILLER_0_174_1005
*9839 FILLER_0_174_1009
*9840 FILLER_0_174_1021
*9841 FILLER_0_174_1033
*9842 FILLER_0_174_1037
*9843 FILLER_0_174_1049
*9844 FILLER_0_174_1057
*9845 FILLER_0_174_109
*9846 FILLER_0_174_113
*9847 FILLER_0_174_125
*9848 FILLER_0_174_137
*9849 FILLER_0_174_141
*9850 FILLER_0_174_15
*9851 FILLER_0_174_153
*9852 FILLER_0_174_165
*9853 FILLER_0_174_169
*9854 FILLER_0_174_181
*9855 FILLER_0_174_193
*9856 FILLER_0_174_197
*9857 FILLER_0_174_209
*9858 FILLER_0_174_221
*9859 FILLER_0_174_225
*9860 FILLER_0_174_237
*9861 FILLER_0_174_249
*9862 FILLER_0_174_253
*9863 FILLER_0_174_265
*9864 FILLER_0_174_27
*9865 FILLER_0_174_277
*9866 FILLER_0_174_281
*9867 FILLER_0_174_29
*9868 FILLER_0_174_293
*9869 FILLER_0_174_3
*9870 FILLER_0_174_305
*9871 FILLER_0_174_309
*9872 FILLER_0_174_321
*9873 FILLER_0_174_333
*9874 FILLER_0_174_337
*9875 FILLER_0_174_349
*9876 FILLER_0_174_361
*9877 FILLER_0_174_365
*9878 FILLER_0_174_377
*9879 FILLER_0_174_389
*9880 FILLER_0_174_393
*9881 FILLER_0_174_405
*9882 FILLER_0_174_41
*9883 FILLER_0_174_417
*9884 FILLER_0_174_421
*9885 FILLER_0_174_433
*9886 FILLER_0_174_445
*9887 FILLER_0_174_449
*9888 FILLER_0_174_461
*9889 FILLER_0_174_473
*9890 FILLER_0_174_477
*9891 FILLER_0_174_489
*9892 FILLER_0_174_501
*9893 FILLER_0_174_505
*9894 FILLER_0_174_517
*9895 FILLER_0_174_529
*9896 FILLER_0_174_53
*9897 FILLER_0_174_533
*9898 FILLER_0_174_545
*9899 FILLER_0_174_557
*9900 FILLER_0_174_561
*9901 FILLER_0_174_57
*9902 FILLER_0_174_573
*9903 FILLER_0_174_585
*9904 FILLER_0_174_589
*9905 FILLER_0_174_601
*9906 FILLER_0_174_613
*9907 FILLER_0_174_617
*9908 FILLER_0_174_629
*9909 FILLER_0_174_641
*9910 FILLER_0_174_645
*9911 FILLER_0_174_657
*9912 FILLER_0_174_669
*9913 FILLER_0_174_673
*9914 FILLER_0_174_685
*9915 FILLER_0_174_69
*9916 FILLER_0_174_697
*9917 FILLER_0_174_701
*9918 FILLER_0_174_713
*9919 FILLER_0_174_725
*9920 FILLER_0_174_729
*9921 FILLER_0_174_741
*9922 FILLER_0_174_753
*9923 FILLER_0_174_757
*9924 FILLER_0_174_769
*9925 FILLER_0_174_781
*9926 FILLER_0_174_785
*9927 FILLER_0_174_797
*9928 FILLER_0_174_809
*9929 FILLER_0_174_81
*9930 FILLER_0_174_813
*9931 FILLER_0_174_825
*9932 FILLER_0_174_837
*9933 FILLER_0_174_841
*9934 FILLER_0_174_85
*9935 FILLER_0_174_853
*9936 FILLER_0_174_865
*9937 FILLER_0_174_869
*9938 FILLER_0_174_881
*9939 FILLER_0_174_893
*9940 FILLER_0_174_897
*9941 FILLER_0_174_909
*9942 FILLER_0_174_921
*9943 FILLER_0_174_925
*9944 FILLER_0_174_937
*9945 FILLER_0_174_949
*9946 FILLER_0_174_953
*9947 FILLER_0_174_965
*9948 FILLER_0_174_97
*9949 FILLER_0_174_977
*9950 FILLER_0_174_981
*9951 FILLER_0_174_993
*9952 FILLER_0_17_1001
*9953 FILLER_0_17_1007
*9954 FILLER_0_17_1009
*9955 FILLER_0_17_1021
*9956 FILLER_0_17_1033
*9957 FILLER_0_17_1045
*9958 FILLER_0_17_105
*9959 FILLER_0_17_1057
*9960 FILLER_0_17_111
*9961 FILLER_0_17_113
*9962 FILLER_0_17_125
*9963 FILLER_0_17_137
*9964 FILLER_0_17_149
*9965 FILLER_0_17_15
*9966 FILLER_0_17_161
*9967 FILLER_0_17_167
*9968 FILLER_0_17_169
*9969 FILLER_0_17_181
*9970 FILLER_0_17_193
*9971 FILLER_0_17_205
*9972 FILLER_0_17_217
*9973 FILLER_0_17_223
*9974 FILLER_0_17_225
*9975 FILLER_0_17_237
*9976 FILLER_0_17_249
*9977 FILLER_0_17_261
*9978 FILLER_0_17_27
*9979 FILLER_0_17_273
*9980 FILLER_0_17_279
*9981 FILLER_0_17_281
*9982 FILLER_0_17_293
*9983 FILLER_0_17_3
*9984 FILLER_0_17_305
*9985 FILLER_0_17_317
*9986 FILLER_0_17_329
*9987 FILLER_0_17_335
*9988 FILLER_0_17_337
*9989 FILLER_0_17_349
*9990 FILLER_0_17_361
*9991 FILLER_0_17_373
*9992 FILLER_0_17_385
*9993 FILLER_0_17_39
*9994 FILLER_0_17_391
*9995 FILLER_0_17_393
*9996 FILLER_0_17_405
*9997 FILLER_0_17_417
*9998 FILLER_0_17_429
*9999 FILLER_0_17_441
*10000 FILLER_0_17_447
*10001 FILLER_0_17_449
*10002 FILLER_0_17_461
*10003 FILLER_0_17_473
*10004 FILLER_0_17_485
*10005 FILLER_0_17_497
*10006 FILLER_0_17_503
*10007 FILLER_0_17_505
*10008 FILLER_0_17_51
*10009 FILLER_0_17_517
*10010 FILLER_0_17_529
*10011 FILLER_0_17_541
*10012 FILLER_0_17_55
*10013 FILLER_0_17_553
*10014 FILLER_0_17_559
*10015 FILLER_0_17_561
*10016 FILLER_0_17_57
*10017 FILLER_0_17_573
*10018 FILLER_0_17_585
*10019 FILLER_0_17_597
*10020 FILLER_0_17_609
*10021 FILLER_0_17_615
*10022 FILLER_0_17_617
*10023 FILLER_0_17_629
*10024 FILLER_0_17_641
*10025 FILLER_0_17_653
*10026 FILLER_0_17_665
*10027 FILLER_0_17_671
*10028 FILLER_0_17_673
*10029 FILLER_0_17_685
*10030 FILLER_0_17_69
*10031 FILLER_0_17_697
*10032 FILLER_0_17_709
*10033 FILLER_0_17_721
*10034 FILLER_0_17_727
*10035 FILLER_0_17_729
*10036 FILLER_0_17_741
*10037 FILLER_0_17_753
*10038 FILLER_0_17_765
*10039 FILLER_0_17_777
*10040 FILLER_0_17_783
*10041 FILLER_0_17_785
*10042 FILLER_0_17_797
*10043 FILLER_0_17_809
*10044 FILLER_0_17_81
*10045 FILLER_0_17_821
*10046 FILLER_0_17_833
*10047 FILLER_0_17_839
*10048 FILLER_0_17_841
*10049 FILLER_0_17_853
*10050 FILLER_0_17_865
*10051 FILLER_0_17_877
*10052 FILLER_0_17_889
*10053 FILLER_0_17_895
*10054 FILLER_0_17_897
*10055 FILLER_0_17_909
*10056 FILLER_0_17_921
*10057 FILLER_0_17_93
*10058 FILLER_0_17_933
*10059 FILLER_0_17_945
*10060 FILLER_0_17_951
*10061 FILLER_0_17_953
*10062 FILLER_0_17_965
*10063 FILLER_0_17_977
*10064 FILLER_0_17_989
*10065 FILLER_0_18_1005
*10066 FILLER_0_18_1017
*10067 FILLER_0_18_1029
*10068 FILLER_0_18_1035
*10069 FILLER_0_18_1037
*10070 FILLER_0_18_1049
*10071 FILLER_0_18_1057
*10072 FILLER_0_18_109
*10073 FILLER_0_18_11
*10074 FILLER_0_18_121
*10075 FILLER_0_18_133
*10076 FILLER_0_18_139
*10077 FILLER_0_18_141
*10078 FILLER_0_18_153
*10079 FILLER_0_18_165
*10080 FILLER_0_18_177
*10081 FILLER_0_18_189
*10082 FILLER_0_18_195
*10083 FILLER_0_18_197
*10084 FILLER_0_18_209
*10085 FILLER_0_18_221
*10086 FILLER_0_18_23
*10087 FILLER_0_18_233
*10088 FILLER_0_18_245
*10089 FILLER_0_18_251
*10090 FILLER_0_18_253
*10091 FILLER_0_18_265
*10092 FILLER_0_18_27
*10093 FILLER_0_18_277
*10094 FILLER_0_18_289
*10095 FILLER_0_18_29
*10096 FILLER_0_18_301
*10097 FILLER_0_18_307
*10098 FILLER_0_18_309
*10099 FILLER_0_18_321
*10100 FILLER_0_18_333
*10101 FILLER_0_18_345
*10102 FILLER_0_18_357
*10103 FILLER_0_18_363
*10104 FILLER_0_18_365
*10105 FILLER_0_18_377
*10106 FILLER_0_18_389
*10107 FILLER_0_18_401
*10108 FILLER_0_18_41
*10109 FILLER_0_18_413
*10110 FILLER_0_18_419
*10111 FILLER_0_18_421
*10112 FILLER_0_18_433
*10113 FILLER_0_18_445
*10114 FILLER_0_18_457
*10115 FILLER_0_18_469
*10116 FILLER_0_18_475
*10117 FILLER_0_18_477
*10118 FILLER_0_18_489
*10119 FILLER_0_18_501
*10120 FILLER_0_18_513
*10121 FILLER_0_18_525
*10122 FILLER_0_18_53
*10123 FILLER_0_18_531
*10124 FILLER_0_18_533
*10125 FILLER_0_18_545
*10126 FILLER_0_18_557
*10127 FILLER_0_18_569
*10128 FILLER_0_18_581
*10129 FILLER_0_18_587
*10130 FILLER_0_18_589
*10131 FILLER_0_18_601
*10132 FILLER_0_18_613
*10133 FILLER_0_18_625
*10134 FILLER_0_18_637
*10135 FILLER_0_18_643
*10136 FILLER_0_18_645
*10137 FILLER_0_18_65
*10138 FILLER_0_18_657
*10139 FILLER_0_18_669
*10140 FILLER_0_18_681
*10141 FILLER_0_18_693
*10142 FILLER_0_18_699
*10143 FILLER_0_18_7
*10144 FILLER_0_18_701
*10145 FILLER_0_18_713
*10146 FILLER_0_18_725
*10147 FILLER_0_18_737
*10148 FILLER_0_18_749
*10149 FILLER_0_18_755
*10150 FILLER_0_18_757
*10151 FILLER_0_18_769
*10152 FILLER_0_18_77
*10153 FILLER_0_18_781
*10154 FILLER_0_18_793
*10155 FILLER_0_18_805
*10156 FILLER_0_18_811
*10157 FILLER_0_18_813
*10158 FILLER_0_18_825
*10159 FILLER_0_18_83
*10160 FILLER_0_18_837
*10161 FILLER_0_18_849
*10162 FILLER_0_18_85
*10163 FILLER_0_18_861
*10164 FILLER_0_18_867
*10165 FILLER_0_18_869
*10166 FILLER_0_18_881
*10167 FILLER_0_18_893
*10168 FILLER_0_18_905
*10169 FILLER_0_18_917
*10170 FILLER_0_18_923
*10171 FILLER_0_18_925
*10172 FILLER_0_18_937
*10173 FILLER_0_18_949
*10174 FILLER_0_18_961
*10175 FILLER_0_18_97
*10176 FILLER_0_18_973
*10177 FILLER_0_18_979
*10178 FILLER_0_18_981
*10179 FILLER_0_18_993
*10180 FILLER_0_19_1001
*10181 FILLER_0_19_1007
*10182 FILLER_0_19_1009
*10183 FILLER_0_19_1021
*10184 FILLER_0_19_1033
*10185 FILLER_0_19_1045
*10186 FILLER_0_19_105
*10187 FILLER_0_19_1057
*10188 FILLER_0_19_111
*10189 FILLER_0_19_113
*10190 FILLER_0_19_125
*10191 FILLER_0_19_137
*10192 FILLER_0_19_149
*10193 FILLER_0_19_15
*10194 FILLER_0_19_161
*10195 FILLER_0_19_167
*10196 FILLER_0_19_169
*10197 FILLER_0_19_181
*10198 FILLER_0_19_193
*10199 FILLER_0_19_205
*10200 FILLER_0_19_217
*10201 FILLER_0_19_223
*10202 FILLER_0_19_225
*10203 FILLER_0_19_237
*10204 FILLER_0_19_249
*10205 FILLER_0_19_261
*10206 FILLER_0_19_27
*10207 FILLER_0_19_273
*10208 FILLER_0_19_279
*10209 FILLER_0_19_281
*10210 FILLER_0_19_293
*10211 FILLER_0_19_3
*10212 FILLER_0_19_305
*10213 FILLER_0_19_317
*10214 FILLER_0_19_329
*10215 FILLER_0_19_335
*10216 FILLER_0_19_337
*10217 FILLER_0_19_349
*10218 FILLER_0_19_361
*10219 FILLER_0_19_373
*10220 FILLER_0_19_385
*10221 FILLER_0_19_39
*10222 FILLER_0_19_391
*10223 FILLER_0_19_393
*10224 FILLER_0_19_405
*10225 FILLER_0_19_417
*10226 FILLER_0_19_429
*10227 FILLER_0_19_441
*10228 FILLER_0_19_447
*10229 FILLER_0_19_449
*10230 FILLER_0_19_461
*10231 FILLER_0_19_473
*10232 FILLER_0_19_485
*10233 FILLER_0_19_497
*10234 FILLER_0_19_503
*10235 FILLER_0_19_505
*10236 FILLER_0_19_51
*10237 FILLER_0_19_517
*10238 FILLER_0_19_529
*10239 FILLER_0_19_541
*10240 FILLER_0_19_55
*10241 FILLER_0_19_553
*10242 FILLER_0_19_559
*10243 FILLER_0_19_561
*10244 FILLER_0_19_57
*10245 FILLER_0_19_573
*10246 FILLER_0_19_585
*10247 FILLER_0_19_597
*10248 FILLER_0_19_609
*10249 FILLER_0_19_615
*10250 FILLER_0_19_617
*10251 FILLER_0_19_629
*10252 FILLER_0_19_641
*10253 FILLER_0_19_653
*10254 FILLER_0_19_665
*10255 FILLER_0_19_671
*10256 FILLER_0_19_673
*10257 FILLER_0_19_685
*10258 FILLER_0_19_69
*10259 FILLER_0_19_697
*10260 FILLER_0_19_709
*10261 FILLER_0_19_721
*10262 FILLER_0_19_727
*10263 FILLER_0_19_729
*10264 FILLER_0_19_741
*10265 FILLER_0_19_753
*10266 FILLER_0_19_765
*10267 FILLER_0_19_777
*10268 FILLER_0_19_783
*10269 FILLER_0_19_785
*10270 FILLER_0_19_797
*10271 FILLER_0_19_809
*10272 FILLER_0_19_81
*10273 FILLER_0_19_821
*10274 FILLER_0_19_833
*10275 FILLER_0_19_839
*10276 FILLER_0_19_841
*10277 FILLER_0_19_853
*10278 FILLER_0_19_865
*10279 FILLER_0_19_877
*10280 FILLER_0_19_889
*10281 FILLER_0_19_895
*10282 FILLER_0_19_897
*10283 FILLER_0_19_909
*10284 FILLER_0_19_921
*10285 FILLER_0_19_93
*10286 FILLER_0_19_933
*10287 FILLER_0_19_945
*10288 FILLER_0_19_951
*10289 FILLER_0_19_953
*10290 FILLER_0_19_965
*10291 FILLER_0_19_977
*10292 FILLER_0_19_989
*10293 FILLER_0_1_1001
*10294 FILLER_0_1_1007
*10295 FILLER_0_1_1009
*10296 FILLER_0_1_1021
*10297 FILLER_0_1_1033
*10298 FILLER_0_1_1045
*10299 FILLER_0_1_105
*10300 FILLER_0_1_1057
*10301 FILLER_0_1_111
*10302 FILLER_0_1_113
*10303 FILLER_0_1_125
*10304 FILLER_0_1_137
*10305 FILLER_0_1_149
*10306 FILLER_0_1_15
*10307 FILLER_0_1_161
*10308 FILLER_0_1_167
*10309 FILLER_0_1_169
*10310 FILLER_0_1_181
*10311 FILLER_0_1_193
*10312 FILLER_0_1_205
*10313 FILLER_0_1_217
*10314 FILLER_0_1_223
*10315 FILLER_0_1_225
*10316 FILLER_0_1_237
*10317 FILLER_0_1_249
*10318 FILLER_0_1_261
*10319 FILLER_0_1_27
*10320 FILLER_0_1_273
*10321 FILLER_0_1_279
*10322 FILLER_0_1_281
*10323 FILLER_0_1_293
*10324 FILLER_0_1_3
*10325 FILLER_0_1_305
*10326 FILLER_0_1_317
*10327 FILLER_0_1_329
*10328 FILLER_0_1_335
*10329 FILLER_0_1_337
*10330 FILLER_0_1_349
*10331 FILLER_0_1_361
*10332 FILLER_0_1_373
*10333 FILLER_0_1_385
*10334 FILLER_0_1_39
*10335 FILLER_0_1_391
*10336 FILLER_0_1_393
*10337 FILLER_0_1_405
*10338 FILLER_0_1_417
*10339 FILLER_0_1_429
*10340 FILLER_0_1_441
*10341 FILLER_0_1_447
*10342 FILLER_0_1_449
*10343 FILLER_0_1_461
*10344 FILLER_0_1_473
*10345 FILLER_0_1_485
*10346 FILLER_0_1_497
*10347 FILLER_0_1_503
*10348 FILLER_0_1_505
*10349 FILLER_0_1_51
*10350 FILLER_0_1_517
*10351 FILLER_0_1_529
*10352 FILLER_0_1_541
*10353 FILLER_0_1_55
*10354 FILLER_0_1_553
*10355 FILLER_0_1_559
*10356 FILLER_0_1_561
*10357 FILLER_0_1_57
*10358 FILLER_0_1_573
*10359 FILLER_0_1_585
*10360 FILLER_0_1_597
*10361 FILLER_0_1_609
*10362 FILLER_0_1_615
*10363 FILLER_0_1_617
*10364 FILLER_0_1_629
*10365 FILLER_0_1_641
*10366 FILLER_0_1_653
*10367 FILLER_0_1_665
*10368 FILLER_0_1_671
*10369 FILLER_0_1_673
*10370 FILLER_0_1_685
*10371 FILLER_0_1_69
*10372 FILLER_0_1_697
*10373 FILLER_0_1_709
*10374 FILLER_0_1_721
*10375 FILLER_0_1_727
*10376 FILLER_0_1_729
*10377 FILLER_0_1_741
*10378 FILLER_0_1_753
*10379 FILLER_0_1_765
*10380 FILLER_0_1_777
*10381 FILLER_0_1_783
*10382 FILLER_0_1_785
*10383 FILLER_0_1_797
*10384 FILLER_0_1_809
*10385 FILLER_0_1_81
*10386 FILLER_0_1_821
*10387 FILLER_0_1_833
*10388 FILLER_0_1_839
*10389 FILLER_0_1_841
*10390 FILLER_0_1_853
*10391 FILLER_0_1_865
*10392 FILLER_0_1_877
*10393 FILLER_0_1_889
*10394 FILLER_0_1_895
*10395 FILLER_0_1_897
*10396 FILLER_0_1_909
*10397 FILLER_0_1_921
*10398 FILLER_0_1_93
*10399 FILLER_0_1_933
*10400 FILLER_0_1_945
*10401 FILLER_0_1_951
*10402 FILLER_0_1_953
*10403 FILLER_0_1_965
*10404 FILLER_0_1_977
*10405 FILLER_0_1_989
*10406 FILLER_0_20_1005
*10407 FILLER_0_20_1017
*10408 FILLER_0_20_1029
*10409 FILLER_0_20_1035
*10410 FILLER_0_20_1037
*10411 FILLER_0_20_1049
*10412 FILLER_0_20_1057
*10413 FILLER_0_20_109
*10414 FILLER_0_20_121
*10415 FILLER_0_20_133
*10416 FILLER_0_20_139
*10417 FILLER_0_20_141
*10418 FILLER_0_20_15
*10419 FILLER_0_20_153
*10420 FILLER_0_20_165
*10421 FILLER_0_20_177
*10422 FILLER_0_20_189
*10423 FILLER_0_20_195
*10424 FILLER_0_20_197
*10425 FILLER_0_20_209
*10426 FILLER_0_20_221
*10427 FILLER_0_20_233
*10428 FILLER_0_20_245
*10429 FILLER_0_20_251
*10430 FILLER_0_20_253
*10431 FILLER_0_20_265
*10432 FILLER_0_20_27
*10433 FILLER_0_20_277
*10434 FILLER_0_20_289
*10435 FILLER_0_20_29
*10436 FILLER_0_20_3
*10437 FILLER_0_20_301
*10438 FILLER_0_20_307
*10439 FILLER_0_20_309
*10440 FILLER_0_20_321
*10441 FILLER_0_20_333
*10442 FILLER_0_20_345
*10443 FILLER_0_20_357
*10444 FILLER_0_20_363
*10445 FILLER_0_20_365
*10446 FILLER_0_20_377
*10447 FILLER_0_20_389
*10448 FILLER_0_20_401
*10449 FILLER_0_20_41
*10450 FILLER_0_20_413
*10451 FILLER_0_20_419
*10452 FILLER_0_20_421
*10453 FILLER_0_20_433
*10454 FILLER_0_20_445
*10455 FILLER_0_20_457
*10456 FILLER_0_20_469
*10457 FILLER_0_20_475
*10458 FILLER_0_20_477
*10459 FILLER_0_20_489
*10460 FILLER_0_20_501
*10461 FILLER_0_20_513
*10462 FILLER_0_20_525
*10463 FILLER_0_20_53
*10464 FILLER_0_20_531
*10465 FILLER_0_20_533
*10466 FILLER_0_20_545
*10467 FILLER_0_20_557
*10468 FILLER_0_20_569
*10469 FILLER_0_20_581
*10470 FILLER_0_20_587
*10471 FILLER_0_20_589
*10472 FILLER_0_20_601
*10473 FILLER_0_20_613
*10474 FILLER_0_20_625
*10475 FILLER_0_20_637
*10476 FILLER_0_20_643
*10477 FILLER_0_20_645
*10478 FILLER_0_20_65
*10479 FILLER_0_20_657
*10480 FILLER_0_20_669
*10481 FILLER_0_20_681
*10482 FILLER_0_20_693
*10483 FILLER_0_20_699
*10484 FILLER_0_20_701
*10485 FILLER_0_20_713
*10486 FILLER_0_20_725
*10487 FILLER_0_20_737
*10488 FILLER_0_20_749
*10489 FILLER_0_20_755
*10490 FILLER_0_20_757
*10491 FILLER_0_20_769
*10492 FILLER_0_20_77
*10493 FILLER_0_20_781
*10494 FILLER_0_20_793
*10495 FILLER_0_20_805
*10496 FILLER_0_20_811
*10497 FILLER_0_20_813
*10498 FILLER_0_20_825
*10499 FILLER_0_20_83
*10500 FILLER_0_20_837
*10501 FILLER_0_20_849
*10502 FILLER_0_20_85
*10503 FILLER_0_20_861
*10504 FILLER_0_20_867
*10505 FILLER_0_20_869
*10506 FILLER_0_20_881
*10507 FILLER_0_20_893
*10508 FILLER_0_20_905
*10509 FILLER_0_20_917
*10510 FILLER_0_20_923
*10511 FILLER_0_20_925
*10512 FILLER_0_20_937
*10513 FILLER_0_20_949
*10514 FILLER_0_20_961
*10515 FILLER_0_20_97
*10516 FILLER_0_20_973
*10517 FILLER_0_20_979
*10518 FILLER_0_20_981
*10519 FILLER_0_20_993
*10520 FILLER_0_21_1001
*10521 FILLER_0_21_1007
*10522 FILLER_0_21_1009
*10523 FILLER_0_21_1021
*10524 FILLER_0_21_1033
*10525 FILLER_0_21_1045
*10526 FILLER_0_21_105
*10527 FILLER_0_21_1057
*10528 FILLER_0_21_111
*10529 FILLER_0_21_113
*10530 FILLER_0_21_125
*10531 FILLER_0_21_137
*10532 FILLER_0_21_149
*10533 FILLER_0_21_15
*10534 FILLER_0_21_161
*10535 FILLER_0_21_167
*10536 FILLER_0_21_169
*10537 FILLER_0_21_181
*10538 FILLER_0_21_193
*10539 FILLER_0_21_205
*10540 FILLER_0_21_217
*10541 FILLER_0_21_223
*10542 FILLER_0_21_225
*10543 FILLER_0_21_237
*10544 FILLER_0_21_249
*10545 FILLER_0_21_261
*10546 FILLER_0_21_27
*10547 FILLER_0_21_273
*10548 FILLER_0_21_279
*10549 FILLER_0_21_281
*10550 FILLER_0_21_293
*10551 FILLER_0_21_3
*10552 FILLER_0_21_305
*10553 FILLER_0_21_317
*10554 FILLER_0_21_329
*10555 FILLER_0_21_335
*10556 FILLER_0_21_337
*10557 FILLER_0_21_349
*10558 FILLER_0_21_361
*10559 FILLER_0_21_373
*10560 FILLER_0_21_385
*10561 FILLER_0_21_39
*10562 FILLER_0_21_391
*10563 FILLER_0_21_393
*10564 FILLER_0_21_405
*10565 FILLER_0_21_417
*10566 FILLER_0_21_429
*10567 FILLER_0_21_441
*10568 FILLER_0_21_447
*10569 FILLER_0_21_449
*10570 FILLER_0_21_461
*10571 FILLER_0_21_473
*10572 FILLER_0_21_485
*10573 FILLER_0_21_497
*10574 FILLER_0_21_503
*10575 FILLER_0_21_505
*10576 FILLER_0_21_51
*10577 FILLER_0_21_517
*10578 FILLER_0_21_529
*10579 FILLER_0_21_541
*10580 FILLER_0_21_55
*10581 FILLER_0_21_553
*10582 FILLER_0_21_559
*10583 FILLER_0_21_561
*10584 FILLER_0_21_57
*10585 FILLER_0_21_573
*10586 FILLER_0_21_585
*10587 FILLER_0_21_597
*10588 FILLER_0_21_609
*10589 FILLER_0_21_615
*10590 FILLER_0_21_617
*10591 FILLER_0_21_629
*10592 FILLER_0_21_641
*10593 FILLER_0_21_653
*10594 FILLER_0_21_665
*10595 FILLER_0_21_671
*10596 FILLER_0_21_673
*10597 FILLER_0_21_685
*10598 FILLER_0_21_69
*10599 FILLER_0_21_697
*10600 FILLER_0_21_709
*10601 FILLER_0_21_721
*10602 FILLER_0_21_727
*10603 FILLER_0_21_729
*10604 FILLER_0_21_741
*10605 FILLER_0_21_753
*10606 FILLER_0_21_765
*10607 FILLER_0_21_777
*10608 FILLER_0_21_783
*10609 FILLER_0_21_785
*10610 FILLER_0_21_797
*10611 FILLER_0_21_809
*10612 FILLER_0_21_81
*10613 FILLER_0_21_821
*10614 FILLER_0_21_833
*10615 FILLER_0_21_839
*10616 FILLER_0_21_841
*10617 FILLER_0_21_853
*10618 FILLER_0_21_865
*10619 FILLER_0_21_877
*10620 FILLER_0_21_889
*10621 FILLER_0_21_895
*10622 FILLER_0_21_897
*10623 FILLER_0_21_909
*10624 FILLER_0_21_921
*10625 FILLER_0_21_93
*10626 FILLER_0_21_933
*10627 FILLER_0_21_945
*10628 FILLER_0_21_951
*10629 FILLER_0_21_953
*10630 FILLER_0_21_965
*10631 FILLER_0_21_977
*10632 FILLER_0_21_989
*10633 FILLER_0_22_1005
*10634 FILLER_0_22_1017
*10635 FILLER_0_22_1029
*10636 FILLER_0_22_1035
*10637 FILLER_0_22_1037
*10638 FILLER_0_22_1049
*10639 FILLER_0_22_1057
*10640 FILLER_0_22_109
*10641 FILLER_0_22_121
*10642 FILLER_0_22_133
*10643 FILLER_0_22_139
*10644 FILLER_0_22_141
*10645 FILLER_0_22_15
*10646 FILLER_0_22_153
*10647 FILLER_0_22_165
*10648 FILLER_0_22_177
*10649 FILLER_0_22_189
*10650 FILLER_0_22_195
*10651 FILLER_0_22_197
*10652 FILLER_0_22_209
*10653 FILLER_0_22_221
*10654 FILLER_0_22_233
*10655 FILLER_0_22_245
*10656 FILLER_0_22_251
*10657 FILLER_0_22_253
*10658 FILLER_0_22_265
*10659 FILLER_0_22_27
*10660 FILLER_0_22_277
*10661 FILLER_0_22_289
*10662 FILLER_0_22_29
*10663 FILLER_0_22_3
*10664 FILLER_0_22_301
*10665 FILLER_0_22_307
*10666 FILLER_0_22_309
*10667 FILLER_0_22_321
*10668 FILLER_0_22_333
*10669 FILLER_0_22_345
*10670 FILLER_0_22_357
*10671 FILLER_0_22_363
*10672 FILLER_0_22_365
*10673 FILLER_0_22_377
*10674 FILLER_0_22_389
*10675 FILLER_0_22_401
*10676 FILLER_0_22_41
*10677 FILLER_0_22_413
*10678 FILLER_0_22_419
*10679 FILLER_0_22_421
*10680 FILLER_0_22_433
*10681 FILLER_0_22_445
*10682 FILLER_0_22_457
*10683 FILLER_0_22_469
*10684 FILLER_0_22_475
*10685 FILLER_0_22_477
*10686 FILLER_0_22_489
*10687 FILLER_0_22_501
*10688 FILLER_0_22_513
*10689 FILLER_0_22_525
*10690 FILLER_0_22_53
*10691 FILLER_0_22_531
*10692 FILLER_0_22_533
*10693 FILLER_0_22_545
*10694 FILLER_0_22_557
*10695 FILLER_0_22_569
*10696 FILLER_0_22_581
*10697 FILLER_0_22_587
*10698 FILLER_0_22_589
*10699 FILLER_0_22_601
*10700 FILLER_0_22_613
*10701 FILLER_0_22_625
*10702 FILLER_0_22_637
*10703 FILLER_0_22_643
*10704 FILLER_0_22_645
*10705 FILLER_0_22_65
*10706 FILLER_0_22_657
*10707 FILLER_0_22_669
*10708 FILLER_0_22_681
*10709 FILLER_0_22_693
*10710 FILLER_0_22_699
*10711 FILLER_0_22_701
*10712 FILLER_0_22_713
*10713 FILLER_0_22_725
*10714 FILLER_0_22_737
*10715 FILLER_0_22_749
*10716 FILLER_0_22_755
*10717 FILLER_0_22_757
*10718 FILLER_0_22_769
*10719 FILLER_0_22_77
*10720 FILLER_0_22_781
*10721 FILLER_0_22_793
*10722 FILLER_0_22_805
*10723 FILLER_0_22_811
*10724 FILLER_0_22_813
*10725 FILLER_0_22_825
*10726 FILLER_0_22_83
*10727 FILLER_0_22_837
*10728 FILLER_0_22_849
*10729 FILLER_0_22_85
*10730 FILLER_0_22_861
*10731 FILLER_0_22_867
*10732 FILLER_0_22_869
*10733 FILLER_0_22_881
*10734 FILLER_0_22_893
*10735 FILLER_0_22_905
*10736 FILLER_0_22_917
*10737 FILLER_0_22_923
*10738 FILLER_0_22_925
*10739 FILLER_0_22_937
*10740 FILLER_0_22_949
*10741 FILLER_0_22_961
*10742 FILLER_0_22_97
*10743 FILLER_0_22_973
*10744 FILLER_0_22_979
*10745 FILLER_0_22_981
*10746 FILLER_0_22_993
*10747 FILLER_0_23_1001
*10748 FILLER_0_23_1007
*10749 FILLER_0_23_1009
*10750 FILLER_0_23_1021
*10751 FILLER_0_23_1033
*10752 FILLER_0_23_1045
*10753 FILLER_0_23_105
*10754 FILLER_0_23_1057
*10755 FILLER_0_23_111
*10756 FILLER_0_23_113
*10757 FILLER_0_23_125
*10758 FILLER_0_23_137
*10759 FILLER_0_23_149
*10760 FILLER_0_23_161
*10761 FILLER_0_23_167
*10762 FILLER_0_23_169
*10763 FILLER_0_23_18
*10764 FILLER_0_23_181
*10765 FILLER_0_23_193
*10766 FILLER_0_23_205
*10767 FILLER_0_23_217
*10768 FILLER_0_23_223
*10769 FILLER_0_23_225
*10770 FILLER_0_23_237
*10771 FILLER_0_23_249
*10772 FILLER_0_23_261
*10773 FILLER_0_23_273
*10774 FILLER_0_23_279
*10775 FILLER_0_23_281
*10776 FILLER_0_23_293
*10777 FILLER_0_23_30
*10778 FILLER_0_23_305
*10779 FILLER_0_23_317
*10780 FILLER_0_23_329
*10781 FILLER_0_23_335
*10782 FILLER_0_23_337
*10783 FILLER_0_23_349
*10784 FILLER_0_23_361
*10785 FILLER_0_23_373
*10786 FILLER_0_23_385
*10787 FILLER_0_23_391
*10788 FILLER_0_23_393
*10789 FILLER_0_23_405
*10790 FILLER_0_23_417
*10791 FILLER_0_23_42
*10792 FILLER_0_23_429
*10793 FILLER_0_23_441
*10794 FILLER_0_23_447
*10795 FILLER_0_23_449
*10796 FILLER_0_23_461
*10797 FILLER_0_23_473
*10798 FILLER_0_23_485
*10799 FILLER_0_23_497
*10800 FILLER_0_23_503
*10801 FILLER_0_23_505
*10802 FILLER_0_23_517
*10803 FILLER_0_23_529
*10804 FILLER_0_23_54
*10805 FILLER_0_23_541
*10806 FILLER_0_23_553
*10807 FILLER_0_23_559
*10808 FILLER_0_23_561
*10809 FILLER_0_23_57
*10810 FILLER_0_23_573
*10811 FILLER_0_23_585
*10812 FILLER_0_23_597
*10813 FILLER_0_23_6
*10814 FILLER_0_23_609
*10815 FILLER_0_23_615
*10816 FILLER_0_23_617
*10817 FILLER_0_23_629
*10818 FILLER_0_23_641
*10819 FILLER_0_23_653
*10820 FILLER_0_23_665
*10821 FILLER_0_23_671
*10822 FILLER_0_23_673
*10823 FILLER_0_23_685
*10824 FILLER_0_23_69
*10825 FILLER_0_23_697
*10826 FILLER_0_23_709
*10827 FILLER_0_23_721
*10828 FILLER_0_23_727
*10829 FILLER_0_23_729
*10830 FILLER_0_23_741
*10831 FILLER_0_23_753
*10832 FILLER_0_23_765
*10833 FILLER_0_23_777
*10834 FILLER_0_23_783
*10835 FILLER_0_23_785
*10836 FILLER_0_23_797
*10837 FILLER_0_23_809
*10838 FILLER_0_23_81
*10839 FILLER_0_23_821
*10840 FILLER_0_23_833
*10841 FILLER_0_23_839
*10842 FILLER_0_23_841
*10843 FILLER_0_23_853
*10844 FILLER_0_23_865
*10845 FILLER_0_23_877
*10846 FILLER_0_23_889
*10847 FILLER_0_23_895
*10848 FILLER_0_23_897
*10849 FILLER_0_23_909
*10850 FILLER_0_23_921
*10851 FILLER_0_23_93
*10852 FILLER_0_23_933
*10853 FILLER_0_23_945
*10854 FILLER_0_23_951
*10855 FILLER_0_23_953
*10856 FILLER_0_23_965
*10857 FILLER_0_23_977
*10858 FILLER_0_23_989
*10859 FILLER_0_24_1005
*10860 FILLER_0_24_1017
*10861 FILLER_0_24_1029
*10862 FILLER_0_24_1035
*10863 FILLER_0_24_1037
*10864 FILLER_0_24_1049
*10865 FILLER_0_24_1057
*10866 FILLER_0_24_109
*10867 FILLER_0_24_121
*10868 FILLER_0_24_133
*10869 FILLER_0_24_139
*10870 FILLER_0_24_141
*10871 FILLER_0_24_15
*10872 FILLER_0_24_153
*10873 FILLER_0_24_165
*10874 FILLER_0_24_177
*10875 FILLER_0_24_189
*10876 FILLER_0_24_195
*10877 FILLER_0_24_197
*10878 FILLER_0_24_209
*10879 FILLER_0_24_221
*10880 FILLER_0_24_233
*10881 FILLER_0_24_245
*10882 FILLER_0_24_251
*10883 FILLER_0_24_253
*10884 FILLER_0_24_265
*10885 FILLER_0_24_27
*10886 FILLER_0_24_277
*10887 FILLER_0_24_289
*10888 FILLER_0_24_29
*10889 FILLER_0_24_3
*10890 FILLER_0_24_301
*10891 FILLER_0_24_307
*10892 FILLER_0_24_309
*10893 FILLER_0_24_321
*10894 FILLER_0_24_333
*10895 FILLER_0_24_345
*10896 FILLER_0_24_357
*10897 FILLER_0_24_363
*10898 FILLER_0_24_365
*10899 FILLER_0_24_377
*10900 FILLER_0_24_389
*10901 FILLER_0_24_401
*10902 FILLER_0_24_41
*10903 FILLER_0_24_413
*10904 FILLER_0_24_419
*10905 FILLER_0_24_421
*10906 FILLER_0_24_433
*10907 FILLER_0_24_445
*10908 FILLER_0_24_457
*10909 FILLER_0_24_469
*10910 FILLER_0_24_475
*10911 FILLER_0_24_477
*10912 FILLER_0_24_489
*10913 FILLER_0_24_501
*10914 FILLER_0_24_513
*10915 FILLER_0_24_525
*10916 FILLER_0_24_53
*10917 FILLER_0_24_531
*10918 FILLER_0_24_533
*10919 FILLER_0_24_545
*10920 FILLER_0_24_557
*10921 FILLER_0_24_569
*10922 FILLER_0_24_581
*10923 FILLER_0_24_587
*10924 FILLER_0_24_589
*10925 FILLER_0_24_601
*10926 FILLER_0_24_613
*10927 FILLER_0_24_625
*10928 FILLER_0_24_637
*10929 FILLER_0_24_643
*10930 FILLER_0_24_645
*10931 FILLER_0_24_65
*10932 FILLER_0_24_657
*10933 FILLER_0_24_669
*10934 FILLER_0_24_681
*10935 FILLER_0_24_693
*10936 FILLER_0_24_699
*10937 FILLER_0_24_701
*10938 FILLER_0_24_713
*10939 FILLER_0_24_725
*10940 FILLER_0_24_737
*10941 FILLER_0_24_749
*10942 FILLER_0_24_755
*10943 FILLER_0_24_757
*10944 FILLER_0_24_769
*10945 FILLER_0_24_77
*10946 FILLER_0_24_781
*10947 FILLER_0_24_793
*10948 FILLER_0_24_805
*10949 FILLER_0_24_811
*10950 FILLER_0_24_813
*10951 FILLER_0_24_825
*10952 FILLER_0_24_83
*10953 FILLER_0_24_837
*10954 FILLER_0_24_849
*10955 FILLER_0_24_85
*10956 FILLER_0_24_861
*10957 FILLER_0_24_867
*10958 FILLER_0_24_869
*10959 FILLER_0_24_881
*10960 FILLER_0_24_893
*10961 FILLER_0_24_905
*10962 FILLER_0_24_917
*10963 FILLER_0_24_923
*10964 FILLER_0_24_925
*10965 FILLER_0_24_937
*10966 FILLER_0_24_949
*10967 FILLER_0_24_961
*10968 FILLER_0_24_97
*10969 FILLER_0_24_973
*10970 FILLER_0_24_979
*10971 FILLER_0_24_981
*10972 FILLER_0_24_993
*10973 FILLER_0_25_1001
*10974 FILLER_0_25_1007
*10975 FILLER_0_25_1009
*10976 FILLER_0_25_1021
*10977 FILLER_0_25_1033
*10978 FILLER_0_25_1045
*10979 FILLER_0_25_105
*10980 FILLER_0_25_1057
*10981 FILLER_0_25_111
*10982 FILLER_0_25_113
*10983 FILLER_0_25_125
*10984 FILLER_0_25_137
*10985 FILLER_0_25_149
*10986 FILLER_0_25_15
*10987 FILLER_0_25_161
*10988 FILLER_0_25_167
*10989 FILLER_0_25_169
*10990 FILLER_0_25_181
*10991 FILLER_0_25_193
*10992 FILLER_0_25_205
*10993 FILLER_0_25_217
*10994 FILLER_0_25_223
*10995 FILLER_0_25_225
*10996 FILLER_0_25_237
*10997 FILLER_0_25_249
*10998 FILLER_0_25_261
*10999 FILLER_0_25_27
*11000 FILLER_0_25_273
*11001 FILLER_0_25_279
*11002 FILLER_0_25_281
*11003 FILLER_0_25_293
*11004 FILLER_0_25_3
*11005 FILLER_0_25_305
*11006 FILLER_0_25_317
*11007 FILLER_0_25_329
*11008 FILLER_0_25_335
*11009 FILLER_0_25_337
*11010 FILLER_0_25_349
*11011 FILLER_0_25_361
*11012 FILLER_0_25_373
*11013 FILLER_0_25_385
*11014 FILLER_0_25_39
*11015 FILLER_0_25_391
*11016 FILLER_0_25_393
*11017 FILLER_0_25_405
*11018 FILLER_0_25_417
*11019 FILLER_0_25_429
*11020 FILLER_0_25_441
*11021 FILLER_0_25_447
*11022 FILLER_0_25_449
*11023 FILLER_0_25_461
*11024 FILLER_0_25_473
*11025 FILLER_0_25_485
*11026 FILLER_0_25_497
*11027 FILLER_0_25_503
*11028 FILLER_0_25_505
*11029 FILLER_0_25_51
*11030 FILLER_0_25_517
*11031 FILLER_0_25_529
*11032 FILLER_0_25_541
*11033 FILLER_0_25_55
*11034 FILLER_0_25_553
*11035 FILLER_0_25_559
*11036 FILLER_0_25_561
*11037 FILLER_0_25_57
*11038 FILLER_0_25_573
*11039 FILLER_0_25_585
*11040 FILLER_0_25_597
*11041 FILLER_0_25_609
*11042 FILLER_0_25_615
*11043 FILLER_0_25_617
*11044 FILLER_0_25_629
*11045 FILLER_0_25_641
*11046 FILLER_0_25_653
*11047 FILLER_0_25_665
*11048 FILLER_0_25_671
*11049 FILLER_0_25_673
*11050 FILLER_0_25_685
*11051 FILLER_0_25_69
*11052 FILLER_0_25_697
*11053 FILLER_0_25_709
*11054 FILLER_0_25_721
*11055 FILLER_0_25_727
*11056 FILLER_0_25_729
*11057 FILLER_0_25_741
*11058 FILLER_0_25_753
*11059 FILLER_0_25_765
*11060 FILLER_0_25_777
*11061 FILLER_0_25_783
*11062 FILLER_0_25_785
*11063 FILLER_0_25_797
*11064 FILLER_0_25_809
*11065 FILLER_0_25_81
*11066 FILLER_0_25_821
*11067 FILLER_0_25_833
*11068 FILLER_0_25_839
*11069 FILLER_0_25_841
*11070 FILLER_0_25_853
*11071 FILLER_0_25_865
*11072 FILLER_0_25_877
*11073 FILLER_0_25_889
*11074 FILLER_0_25_895
*11075 FILLER_0_25_897
*11076 FILLER_0_25_909
*11077 FILLER_0_25_921
*11078 FILLER_0_25_93
*11079 FILLER_0_25_933
*11080 FILLER_0_25_945
*11081 FILLER_0_25_951
*11082 FILLER_0_25_953
*11083 FILLER_0_25_965
*11084 FILLER_0_25_977
*11085 FILLER_0_25_989
*11086 FILLER_0_26_1005
*11087 FILLER_0_26_1017
*11088 FILLER_0_26_1029
*11089 FILLER_0_26_1035
*11090 FILLER_0_26_1037
*11091 FILLER_0_26_1049
*11092 FILLER_0_26_1057
*11093 FILLER_0_26_109
*11094 FILLER_0_26_121
*11095 FILLER_0_26_133
*11096 FILLER_0_26_139
*11097 FILLER_0_26_141
*11098 FILLER_0_26_15
*11099 FILLER_0_26_153
*11100 FILLER_0_26_165
*11101 FILLER_0_26_177
*11102 FILLER_0_26_189
*11103 FILLER_0_26_195
*11104 FILLER_0_26_197
*11105 FILLER_0_26_209
*11106 FILLER_0_26_221
*11107 FILLER_0_26_233
*11108 FILLER_0_26_245
*11109 FILLER_0_26_251
*11110 FILLER_0_26_253
*11111 FILLER_0_26_265
*11112 FILLER_0_26_27
*11113 FILLER_0_26_277
*11114 FILLER_0_26_289
*11115 FILLER_0_26_29
*11116 FILLER_0_26_3
*11117 FILLER_0_26_301
*11118 FILLER_0_26_307
*11119 FILLER_0_26_309
*11120 FILLER_0_26_321
*11121 FILLER_0_26_333
*11122 FILLER_0_26_345
*11123 FILLER_0_26_357
*11124 FILLER_0_26_363
*11125 FILLER_0_26_365
*11126 FILLER_0_26_377
*11127 FILLER_0_26_389
*11128 FILLER_0_26_401
*11129 FILLER_0_26_41
*11130 FILLER_0_26_413
*11131 FILLER_0_26_419
*11132 FILLER_0_26_421
*11133 FILLER_0_26_433
*11134 FILLER_0_26_445
*11135 FILLER_0_26_457
*11136 FILLER_0_26_469
*11137 FILLER_0_26_475
*11138 FILLER_0_26_477
*11139 FILLER_0_26_489
*11140 FILLER_0_26_501
*11141 FILLER_0_26_513
*11142 FILLER_0_26_525
*11143 FILLER_0_26_53
*11144 FILLER_0_26_531
*11145 FILLER_0_26_533
*11146 FILLER_0_26_545
*11147 FILLER_0_26_557
*11148 FILLER_0_26_569
*11149 FILLER_0_26_581
*11150 FILLER_0_26_587
*11151 FILLER_0_26_589
*11152 FILLER_0_26_601
*11153 FILLER_0_26_613
*11154 FILLER_0_26_625
*11155 FILLER_0_26_637
*11156 FILLER_0_26_643
*11157 FILLER_0_26_645
*11158 FILLER_0_26_65
*11159 FILLER_0_26_657
*11160 FILLER_0_26_669
*11161 FILLER_0_26_681
*11162 FILLER_0_26_693
*11163 FILLER_0_26_699
*11164 FILLER_0_26_701
*11165 FILLER_0_26_713
*11166 FILLER_0_26_725
*11167 FILLER_0_26_737
*11168 FILLER_0_26_749
*11169 FILLER_0_26_755
*11170 FILLER_0_26_757
*11171 FILLER_0_26_769
*11172 FILLER_0_26_77
*11173 FILLER_0_26_781
*11174 FILLER_0_26_793
*11175 FILLER_0_26_805
*11176 FILLER_0_26_811
*11177 FILLER_0_26_813
*11178 FILLER_0_26_825
*11179 FILLER_0_26_83
*11180 FILLER_0_26_837
*11181 FILLER_0_26_849
*11182 FILLER_0_26_85
*11183 FILLER_0_26_861
*11184 FILLER_0_26_867
*11185 FILLER_0_26_869
*11186 FILLER_0_26_881
*11187 FILLER_0_26_893
*11188 FILLER_0_26_905
*11189 FILLER_0_26_917
*11190 FILLER_0_26_923
*11191 FILLER_0_26_925
*11192 FILLER_0_26_937
*11193 FILLER_0_26_949
*11194 FILLER_0_26_961
*11195 FILLER_0_26_97
*11196 FILLER_0_26_973
*11197 FILLER_0_26_979
*11198 FILLER_0_26_981
*11199 FILLER_0_26_993
*11200 FILLER_0_27_1001
*11201 FILLER_0_27_1007
*11202 FILLER_0_27_1009
*11203 FILLER_0_27_1021
*11204 FILLER_0_27_1033
*11205 FILLER_0_27_1045
*11206 FILLER_0_27_105
*11207 FILLER_0_27_1057
*11208 FILLER_0_27_111
*11209 FILLER_0_27_113
*11210 FILLER_0_27_125
*11211 FILLER_0_27_137
*11212 FILLER_0_27_149
*11213 FILLER_0_27_15
*11214 FILLER_0_27_161
*11215 FILLER_0_27_167
*11216 FILLER_0_27_169
*11217 FILLER_0_27_181
*11218 FILLER_0_27_193
*11219 FILLER_0_27_205
*11220 FILLER_0_27_217
*11221 FILLER_0_27_223
*11222 FILLER_0_27_225
*11223 FILLER_0_27_237
*11224 FILLER_0_27_249
*11225 FILLER_0_27_261
*11226 FILLER_0_27_27
*11227 FILLER_0_27_273
*11228 FILLER_0_27_279
*11229 FILLER_0_27_281
*11230 FILLER_0_27_293
*11231 FILLER_0_27_3
*11232 FILLER_0_27_305
*11233 FILLER_0_27_317
*11234 FILLER_0_27_329
*11235 FILLER_0_27_335
*11236 FILLER_0_27_337
*11237 FILLER_0_27_349
*11238 FILLER_0_27_361
*11239 FILLER_0_27_373
*11240 FILLER_0_27_385
*11241 FILLER_0_27_39
*11242 FILLER_0_27_391
*11243 FILLER_0_27_393
*11244 FILLER_0_27_405
*11245 FILLER_0_27_417
*11246 FILLER_0_27_429
*11247 FILLER_0_27_441
*11248 FILLER_0_27_447
*11249 FILLER_0_27_449
*11250 FILLER_0_27_461
*11251 FILLER_0_27_473
*11252 FILLER_0_27_485
*11253 FILLER_0_27_497
*11254 FILLER_0_27_503
*11255 FILLER_0_27_505
*11256 FILLER_0_27_51
*11257 FILLER_0_27_517
*11258 FILLER_0_27_529
*11259 FILLER_0_27_541
*11260 FILLER_0_27_55
*11261 FILLER_0_27_553
*11262 FILLER_0_27_559
*11263 FILLER_0_27_561
*11264 FILLER_0_27_57
*11265 FILLER_0_27_573
*11266 FILLER_0_27_585
*11267 FILLER_0_27_597
*11268 FILLER_0_27_609
*11269 FILLER_0_27_615
*11270 FILLER_0_27_617
*11271 FILLER_0_27_629
*11272 FILLER_0_27_641
*11273 FILLER_0_27_653
*11274 FILLER_0_27_665
*11275 FILLER_0_27_671
*11276 FILLER_0_27_673
*11277 FILLER_0_27_685
*11278 FILLER_0_27_69
*11279 FILLER_0_27_697
*11280 FILLER_0_27_709
*11281 FILLER_0_27_721
*11282 FILLER_0_27_727
*11283 FILLER_0_27_729
*11284 FILLER_0_27_741
*11285 FILLER_0_27_753
*11286 FILLER_0_27_765
*11287 FILLER_0_27_777
*11288 FILLER_0_27_783
*11289 FILLER_0_27_785
*11290 FILLER_0_27_797
*11291 FILLER_0_27_809
*11292 FILLER_0_27_81
*11293 FILLER_0_27_821
*11294 FILLER_0_27_833
*11295 FILLER_0_27_839
*11296 FILLER_0_27_841
*11297 FILLER_0_27_853
*11298 FILLER_0_27_865
*11299 FILLER_0_27_877
*11300 FILLER_0_27_889
*11301 FILLER_0_27_895
*11302 FILLER_0_27_897
*11303 FILLER_0_27_909
*11304 FILLER_0_27_921
*11305 FILLER_0_27_93
*11306 FILLER_0_27_933
*11307 FILLER_0_27_945
*11308 FILLER_0_27_951
*11309 FILLER_0_27_953
*11310 FILLER_0_27_965
*11311 FILLER_0_27_977
*11312 FILLER_0_27_989
*11313 FILLER_0_28_1005
*11314 FILLER_0_28_1017
*11315 FILLER_0_28_1029
*11316 FILLER_0_28_1035
*11317 FILLER_0_28_1037
*11318 FILLER_0_28_1049
*11319 FILLER_0_28_1057
*11320 FILLER_0_28_109
*11321 FILLER_0_28_121
*11322 FILLER_0_28_133
*11323 FILLER_0_28_139
*11324 FILLER_0_28_141
*11325 FILLER_0_28_153
*11326 FILLER_0_28_165
*11327 FILLER_0_28_177
*11328 FILLER_0_28_18
*11329 FILLER_0_28_189
*11330 FILLER_0_28_195
*11331 FILLER_0_28_197
*11332 FILLER_0_28_209
*11333 FILLER_0_28_221
*11334 FILLER_0_28_233
*11335 FILLER_0_28_245
*11336 FILLER_0_28_251
*11337 FILLER_0_28_253
*11338 FILLER_0_28_26
*11339 FILLER_0_28_265
*11340 FILLER_0_28_277
*11341 FILLER_0_28_289
*11342 FILLER_0_28_29
*11343 FILLER_0_28_301
*11344 FILLER_0_28_307
*11345 FILLER_0_28_309
*11346 FILLER_0_28_321
*11347 FILLER_0_28_333
*11348 FILLER_0_28_345
*11349 FILLER_0_28_357
*11350 FILLER_0_28_363
*11351 FILLER_0_28_365
*11352 FILLER_0_28_377
*11353 FILLER_0_28_389
*11354 FILLER_0_28_401
*11355 FILLER_0_28_41
*11356 FILLER_0_28_413
*11357 FILLER_0_28_419
*11358 FILLER_0_28_421
*11359 FILLER_0_28_433
*11360 FILLER_0_28_445
*11361 FILLER_0_28_457
*11362 FILLER_0_28_469
*11363 FILLER_0_28_475
*11364 FILLER_0_28_477
*11365 FILLER_0_28_489
*11366 FILLER_0_28_501
*11367 FILLER_0_28_513
*11368 FILLER_0_28_525
*11369 FILLER_0_28_53
*11370 FILLER_0_28_531
*11371 FILLER_0_28_533
*11372 FILLER_0_28_545
*11373 FILLER_0_28_557
*11374 FILLER_0_28_569
*11375 FILLER_0_28_581
*11376 FILLER_0_28_587
*11377 FILLER_0_28_589
*11378 FILLER_0_28_6
*11379 FILLER_0_28_601
*11380 FILLER_0_28_613
*11381 FILLER_0_28_625
*11382 FILLER_0_28_637
*11383 FILLER_0_28_643
*11384 FILLER_0_28_645
*11385 FILLER_0_28_65
*11386 FILLER_0_28_657
*11387 FILLER_0_28_669
*11388 FILLER_0_28_681
*11389 FILLER_0_28_693
*11390 FILLER_0_28_699
*11391 FILLER_0_28_701
*11392 FILLER_0_28_713
*11393 FILLER_0_28_725
*11394 FILLER_0_28_737
*11395 FILLER_0_28_749
*11396 FILLER_0_28_755
*11397 FILLER_0_28_757
*11398 FILLER_0_28_769
*11399 FILLER_0_28_77
*11400 FILLER_0_28_781
*11401 FILLER_0_28_793
*11402 FILLER_0_28_805
*11403 FILLER_0_28_811
*11404 FILLER_0_28_813
*11405 FILLER_0_28_825
*11406 FILLER_0_28_83
*11407 FILLER_0_28_837
*11408 FILLER_0_28_849
*11409 FILLER_0_28_85
*11410 FILLER_0_28_861
*11411 FILLER_0_28_867
*11412 FILLER_0_28_869
*11413 FILLER_0_28_881
*11414 FILLER_0_28_893
*11415 FILLER_0_28_905
*11416 FILLER_0_28_917
*11417 FILLER_0_28_923
*11418 FILLER_0_28_925
*11419 FILLER_0_28_937
*11420 FILLER_0_28_949
*11421 FILLER_0_28_961
*11422 FILLER_0_28_97
*11423 FILLER_0_28_973
*11424 FILLER_0_28_979
*11425 FILLER_0_28_981
*11426 FILLER_0_28_993
*11427 FILLER_0_29_1001
*11428 FILLER_0_29_1007
*11429 FILLER_0_29_1009
*11430 FILLER_0_29_1021
*11431 FILLER_0_29_1033
*11432 FILLER_0_29_1045
*11433 FILLER_0_29_105
*11434 FILLER_0_29_1057
*11435 FILLER_0_29_111
*11436 FILLER_0_29_113
*11437 FILLER_0_29_125
*11438 FILLER_0_29_137
*11439 FILLER_0_29_149
*11440 FILLER_0_29_15
*11441 FILLER_0_29_161
*11442 FILLER_0_29_167
*11443 FILLER_0_29_169
*11444 FILLER_0_29_181
*11445 FILLER_0_29_193
*11446 FILLER_0_29_205
*11447 FILLER_0_29_217
*11448 FILLER_0_29_223
*11449 FILLER_0_29_225
*11450 FILLER_0_29_237
*11451 FILLER_0_29_249
*11452 FILLER_0_29_261
*11453 FILLER_0_29_27
*11454 FILLER_0_29_273
*11455 FILLER_0_29_279
*11456 FILLER_0_29_281
*11457 FILLER_0_29_293
*11458 FILLER_0_29_3
*11459 FILLER_0_29_305
*11460 FILLER_0_29_317
*11461 FILLER_0_29_329
*11462 FILLER_0_29_335
*11463 FILLER_0_29_337
*11464 FILLER_0_29_349
*11465 FILLER_0_29_361
*11466 FILLER_0_29_373
*11467 FILLER_0_29_385
*11468 FILLER_0_29_39
*11469 FILLER_0_29_391
*11470 FILLER_0_29_393
*11471 FILLER_0_29_405
*11472 FILLER_0_29_417
*11473 FILLER_0_29_429
*11474 FILLER_0_29_441
*11475 FILLER_0_29_447
*11476 FILLER_0_29_449
*11477 FILLER_0_29_461
*11478 FILLER_0_29_473
*11479 FILLER_0_29_485
*11480 FILLER_0_29_497
*11481 FILLER_0_29_503
*11482 FILLER_0_29_505
*11483 FILLER_0_29_51
*11484 FILLER_0_29_517
*11485 FILLER_0_29_529
*11486 FILLER_0_29_541
*11487 FILLER_0_29_55
*11488 FILLER_0_29_553
*11489 FILLER_0_29_559
*11490 FILLER_0_29_561
*11491 FILLER_0_29_57
*11492 FILLER_0_29_573
*11493 FILLER_0_29_585
*11494 FILLER_0_29_597
*11495 FILLER_0_29_609
*11496 FILLER_0_29_615
*11497 FILLER_0_29_617
*11498 FILLER_0_29_629
*11499 FILLER_0_29_641
*11500 FILLER_0_29_653
*11501 FILLER_0_29_665
*11502 FILLER_0_29_671
*11503 FILLER_0_29_673
*11504 FILLER_0_29_685
*11505 FILLER_0_29_69
*11506 FILLER_0_29_697
*11507 FILLER_0_29_709
*11508 FILLER_0_29_721
*11509 FILLER_0_29_727
*11510 FILLER_0_29_729
*11511 FILLER_0_29_741
*11512 FILLER_0_29_753
*11513 FILLER_0_29_765
*11514 FILLER_0_29_777
*11515 FILLER_0_29_783
*11516 FILLER_0_29_785
*11517 FILLER_0_29_797
*11518 FILLER_0_29_809
*11519 FILLER_0_29_81
*11520 FILLER_0_29_821
*11521 FILLER_0_29_833
*11522 FILLER_0_29_839
*11523 FILLER_0_29_841
*11524 FILLER_0_29_853
*11525 FILLER_0_29_865
*11526 FILLER_0_29_877
*11527 FILLER_0_29_889
*11528 FILLER_0_29_895
*11529 FILLER_0_29_897
*11530 FILLER_0_29_909
*11531 FILLER_0_29_921
*11532 FILLER_0_29_93
*11533 FILLER_0_29_933
*11534 FILLER_0_29_945
*11535 FILLER_0_29_951
*11536 FILLER_0_29_953
*11537 FILLER_0_29_965
*11538 FILLER_0_29_977
*11539 FILLER_0_29_989
*11540 FILLER_0_2_1005
*11541 FILLER_0_2_1017
*11542 FILLER_0_2_1029
*11543 FILLER_0_2_1035
*11544 FILLER_0_2_1037
*11545 FILLER_0_2_1049
*11546 FILLER_0_2_1057
*11547 FILLER_0_2_109
*11548 FILLER_0_2_121
*11549 FILLER_0_2_133
*11550 FILLER_0_2_139
*11551 FILLER_0_2_141
*11552 FILLER_0_2_15
*11553 FILLER_0_2_153
*11554 FILLER_0_2_165
*11555 FILLER_0_2_177
*11556 FILLER_0_2_189
*11557 FILLER_0_2_195
*11558 FILLER_0_2_197
*11559 FILLER_0_2_209
*11560 FILLER_0_2_221
*11561 FILLER_0_2_233
*11562 FILLER_0_2_245
*11563 FILLER_0_2_251
*11564 FILLER_0_2_253
*11565 FILLER_0_2_265
*11566 FILLER_0_2_27
*11567 FILLER_0_2_277
*11568 FILLER_0_2_289
*11569 FILLER_0_2_29
*11570 FILLER_0_2_3
*11571 FILLER_0_2_301
*11572 FILLER_0_2_307
*11573 FILLER_0_2_309
*11574 FILLER_0_2_321
*11575 FILLER_0_2_333
*11576 FILLER_0_2_345
*11577 FILLER_0_2_357
*11578 FILLER_0_2_363
*11579 FILLER_0_2_365
*11580 FILLER_0_2_377
*11581 FILLER_0_2_389
*11582 FILLER_0_2_401
*11583 FILLER_0_2_41
*11584 FILLER_0_2_413
*11585 FILLER_0_2_419
*11586 FILLER_0_2_421
*11587 FILLER_0_2_433
*11588 FILLER_0_2_445
*11589 FILLER_0_2_457
*11590 FILLER_0_2_469
*11591 FILLER_0_2_475
*11592 FILLER_0_2_477
*11593 FILLER_0_2_489
*11594 FILLER_0_2_501
*11595 FILLER_0_2_513
*11596 FILLER_0_2_525
*11597 FILLER_0_2_53
*11598 FILLER_0_2_531
*11599 FILLER_0_2_533
*11600 FILLER_0_2_545
*11601 FILLER_0_2_557
*11602 FILLER_0_2_569
*11603 FILLER_0_2_581
*11604 FILLER_0_2_587
*11605 FILLER_0_2_589
*11606 FILLER_0_2_601
*11607 FILLER_0_2_613
*11608 FILLER_0_2_625
*11609 FILLER_0_2_637
*11610 FILLER_0_2_643
*11611 FILLER_0_2_645
*11612 FILLER_0_2_65
*11613 FILLER_0_2_657
*11614 FILLER_0_2_669
*11615 FILLER_0_2_681
*11616 FILLER_0_2_693
*11617 FILLER_0_2_699
*11618 FILLER_0_2_701
*11619 FILLER_0_2_713
*11620 FILLER_0_2_725
*11621 FILLER_0_2_737
*11622 FILLER_0_2_749
*11623 FILLER_0_2_755
*11624 FILLER_0_2_757
*11625 FILLER_0_2_769
*11626 FILLER_0_2_77
*11627 FILLER_0_2_781
*11628 FILLER_0_2_793
*11629 FILLER_0_2_805
*11630 FILLER_0_2_811
*11631 FILLER_0_2_813
*11632 FILLER_0_2_825
*11633 FILLER_0_2_83
*11634 FILLER_0_2_837
*11635 FILLER_0_2_849
*11636 FILLER_0_2_85
*11637 FILLER_0_2_861
*11638 FILLER_0_2_867
*11639 FILLER_0_2_869
*11640 FILLER_0_2_881
*11641 FILLER_0_2_893
*11642 FILLER_0_2_905
*11643 FILLER_0_2_917
*11644 FILLER_0_2_923
*11645 FILLER_0_2_925
*11646 FILLER_0_2_937
*11647 FILLER_0_2_949
*11648 FILLER_0_2_961
*11649 FILLER_0_2_97
*11650 FILLER_0_2_973
*11651 FILLER_0_2_979
*11652 FILLER_0_2_981
*11653 FILLER_0_2_993
*11654 FILLER_0_30_1005
*11655 FILLER_0_30_1017
*11656 FILLER_0_30_1029
*11657 FILLER_0_30_1035
*11658 FILLER_0_30_1037
*11659 FILLER_0_30_1049
*11660 FILLER_0_30_1057
*11661 FILLER_0_30_109
*11662 FILLER_0_30_121
*11663 FILLER_0_30_133
*11664 FILLER_0_30_139
*11665 FILLER_0_30_141
*11666 FILLER_0_30_15
*11667 FILLER_0_30_153
*11668 FILLER_0_30_165
*11669 FILLER_0_30_177
*11670 FILLER_0_30_189
*11671 FILLER_0_30_195
*11672 FILLER_0_30_197
*11673 FILLER_0_30_209
*11674 FILLER_0_30_221
*11675 FILLER_0_30_233
*11676 FILLER_0_30_245
*11677 FILLER_0_30_251
*11678 FILLER_0_30_253
*11679 FILLER_0_30_265
*11680 FILLER_0_30_27
*11681 FILLER_0_30_277
*11682 FILLER_0_30_289
*11683 FILLER_0_30_29
*11684 FILLER_0_30_3
*11685 FILLER_0_30_301
*11686 FILLER_0_30_307
*11687 FILLER_0_30_309
*11688 FILLER_0_30_321
*11689 FILLER_0_30_333
*11690 FILLER_0_30_345
*11691 FILLER_0_30_357
*11692 FILLER_0_30_363
*11693 FILLER_0_30_365
*11694 FILLER_0_30_377
*11695 FILLER_0_30_389
*11696 FILLER_0_30_401
*11697 FILLER_0_30_41
*11698 FILLER_0_30_413
*11699 FILLER_0_30_419
*11700 FILLER_0_30_421
*11701 FILLER_0_30_433
*11702 FILLER_0_30_445
*11703 FILLER_0_30_457
*11704 FILLER_0_30_469
*11705 FILLER_0_30_475
*11706 FILLER_0_30_477
*11707 FILLER_0_30_489
*11708 FILLER_0_30_501
*11709 FILLER_0_30_513
*11710 FILLER_0_30_525
*11711 FILLER_0_30_53
*11712 FILLER_0_30_531
*11713 FILLER_0_30_533
*11714 FILLER_0_30_545
*11715 FILLER_0_30_557
*11716 FILLER_0_30_569
*11717 FILLER_0_30_581
*11718 FILLER_0_30_587
*11719 FILLER_0_30_589
*11720 FILLER_0_30_601
*11721 FILLER_0_30_613
*11722 FILLER_0_30_625
*11723 FILLER_0_30_637
*11724 FILLER_0_30_643
*11725 FILLER_0_30_645
*11726 FILLER_0_30_65
*11727 FILLER_0_30_657
*11728 FILLER_0_30_669
*11729 FILLER_0_30_681
*11730 FILLER_0_30_693
*11731 FILLER_0_30_699
*11732 FILLER_0_30_701
*11733 FILLER_0_30_713
*11734 FILLER_0_30_725
*11735 FILLER_0_30_737
*11736 FILLER_0_30_749
*11737 FILLER_0_30_755
*11738 FILLER_0_30_757
*11739 FILLER_0_30_769
*11740 FILLER_0_30_77
*11741 FILLER_0_30_781
*11742 FILLER_0_30_793
*11743 FILLER_0_30_805
*11744 FILLER_0_30_811
*11745 FILLER_0_30_813
*11746 FILLER_0_30_825
*11747 FILLER_0_30_83
*11748 FILLER_0_30_837
*11749 FILLER_0_30_849
*11750 FILLER_0_30_85
*11751 FILLER_0_30_861
*11752 FILLER_0_30_867
*11753 FILLER_0_30_869
*11754 FILLER_0_30_881
*11755 FILLER_0_30_893
*11756 FILLER_0_30_905
*11757 FILLER_0_30_917
*11758 FILLER_0_30_923
*11759 FILLER_0_30_925
*11760 FILLER_0_30_937
*11761 FILLER_0_30_949
*11762 FILLER_0_30_961
*11763 FILLER_0_30_97
*11764 FILLER_0_30_973
*11765 FILLER_0_30_979
*11766 FILLER_0_30_981
*11767 FILLER_0_30_993
*11768 FILLER_0_31_1001
*11769 FILLER_0_31_1007
*11770 FILLER_0_31_1009
*11771 FILLER_0_31_1021
*11772 FILLER_0_31_1033
*11773 FILLER_0_31_1045
*11774 FILLER_0_31_105
*11775 FILLER_0_31_1057
*11776 FILLER_0_31_111
*11777 FILLER_0_31_113
*11778 FILLER_0_31_125
*11779 FILLER_0_31_137
*11780 FILLER_0_31_149
*11781 FILLER_0_31_15
*11782 FILLER_0_31_161
*11783 FILLER_0_31_167
*11784 FILLER_0_31_169
*11785 FILLER_0_31_181
*11786 FILLER_0_31_193
*11787 FILLER_0_31_205
*11788 FILLER_0_31_217
*11789 FILLER_0_31_223
*11790 FILLER_0_31_225
*11791 FILLER_0_31_237
*11792 FILLER_0_31_249
*11793 FILLER_0_31_261
*11794 FILLER_0_31_27
*11795 FILLER_0_31_273
*11796 FILLER_0_31_279
*11797 FILLER_0_31_281
*11798 FILLER_0_31_293
*11799 FILLER_0_31_3
*11800 FILLER_0_31_305
*11801 FILLER_0_31_317
*11802 FILLER_0_31_329
*11803 FILLER_0_31_335
*11804 FILLER_0_31_337
*11805 FILLER_0_31_349
*11806 FILLER_0_31_361
*11807 FILLER_0_31_373
*11808 FILLER_0_31_385
*11809 FILLER_0_31_39
*11810 FILLER_0_31_391
*11811 FILLER_0_31_393
*11812 FILLER_0_31_405
*11813 FILLER_0_31_417
*11814 FILLER_0_31_429
*11815 FILLER_0_31_441
*11816 FILLER_0_31_447
*11817 FILLER_0_31_449
*11818 FILLER_0_31_461
*11819 FILLER_0_31_473
*11820 FILLER_0_31_485
*11821 FILLER_0_31_497
*11822 FILLER_0_31_503
*11823 FILLER_0_31_505
*11824 FILLER_0_31_51
*11825 FILLER_0_31_517
*11826 FILLER_0_31_529
*11827 FILLER_0_31_541
*11828 FILLER_0_31_55
*11829 FILLER_0_31_553
*11830 FILLER_0_31_559
*11831 FILLER_0_31_561
*11832 FILLER_0_31_57
*11833 FILLER_0_31_573
*11834 FILLER_0_31_585
*11835 FILLER_0_31_597
*11836 FILLER_0_31_609
*11837 FILLER_0_31_615
*11838 FILLER_0_31_617
*11839 FILLER_0_31_629
*11840 FILLER_0_31_641
*11841 FILLER_0_31_653
*11842 FILLER_0_31_665
*11843 FILLER_0_31_671
*11844 FILLER_0_31_673
*11845 FILLER_0_31_685
*11846 FILLER_0_31_69
*11847 FILLER_0_31_697
*11848 FILLER_0_31_709
*11849 FILLER_0_31_721
*11850 FILLER_0_31_727
*11851 FILLER_0_31_729
*11852 FILLER_0_31_741
*11853 FILLER_0_31_753
*11854 FILLER_0_31_765
*11855 FILLER_0_31_777
*11856 FILLER_0_31_783
*11857 FILLER_0_31_785
*11858 FILLER_0_31_797
*11859 FILLER_0_31_809
*11860 FILLER_0_31_81
*11861 FILLER_0_31_821
*11862 FILLER_0_31_833
*11863 FILLER_0_31_839
*11864 FILLER_0_31_841
*11865 FILLER_0_31_853
*11866 FILLER_0_31_865
*11867 FILLER_0_31_877
*11868 FILLER_0_31_889
*11869 FILLER_0_31_895
*11870 FILLER_0_31_897
*11871 FILLER_0_31_909
*11872 FILLER_0_31_921
*11873 FILLER_0_31_93
*11874 FILLER_0_31_933
*11875 FILLER_0_31_945
*11876 FILLER_0_31_951
*11877 FILLER_0_31_953
*11878 FILLER_0_31_965
*11879 FILLER_0_31_977
*11880 FILLER_0_31_989
*11881 FILLER_0_32_1005
*11882 FILLER_0_32_1017
*11883 FILLER_0_32_1029
*11884 FILLER_0_32_1035
*11885 FILLER_0_32_1037
*11886 FILLER_0_32_1049
*11887 FILLER_0_32_1057
*11888 FILLER_0_32_109
*11889 FILLER_0_32_121
*11890 FILLER_0_32_133
*11891 FILLER_0_32_139
*11892 FILLER_0_32_141
*11893 FILLER_0_32_15
*11894 FILLER_0_32_153
*11895 FILLER_0_32_165
*11896 FILLER_0_32_177
*11897 FILLER_0_32_189
*11898 FILLER_0_32_195
*11899 FILLER_0_32_197
*11900 FILLER_0_32_209
*11901 FILLER_0_32_221
*11902 FILLER_0_32_233
*11903 FILLER_0_32_245
*11904 FILLER_0_32_251
*11905 FILLER_0_32_253
*11906 FILLER_0_32_265
*11907 FILLER_0_32_27
*11908 FILLER_0_32_277
*11909 FILLER_0_32_289
*11910 FILLER_0_32_29
*11911 FILLER_0_32_3
*11912 FILLER_0_32_301
*11913 FILLER_0_32_307
*11914 FILLER_0_32_309
*11915 FILLER_0_32_321
*11916 FILLER_0_32_333
*11917 FILLER_0_32_345
*11918 FILLER_0_32_357
*11919 FILLER_0_32_363
*11920 FILLER_0_32_365
*11921 FILLER_0_32_377
*11922 FILLER_0_32_389
*11923 FILLER_0_32_401
*11924 FILLER_0_32_41
*11925 FILLER_0_32_413
*11926 FILLER_0_32_419
*11927 FILLER_0_32_421
*11928 FILLER_0_32_433
*11929 FILLER_0_32_445
*11930 FILLER_0_32_457
*11931 FILLER_0_32_469
*11932 FILLER_0_32_475
*11933 FILLER_0_32_477
*11934 FILLER_0_32_489
*11935 FILLER_0_32_501
*11936 FILLER_0_32_513
*11937 FILLER_0_32_525
*11938 FILLER_0_32_53
*11939 FILLER_0_32_531
*11940 FILLER_0_32_533
*11941 FILLER_0_32_545
*11942 FILLER_0_32_557
*11943 FILLER_0_32_569
*11944 FILLER_0_32_581
*11945 FILLER_0_32_587
*11946 FILLER_0_32_589
*11947 FILLER_0_32_601
*11948 FILLER_0_32_613
*11949 FILLER_0_32_625
*11950 FILLER_0_32_637
*11951 FILLER_0_32_643
*11952 FILLER_0_32_645
*11953 FILLER_0_32_65
*11954 FILLER_0_32_657
*11955 FILLER_0_32_669
*11956 FILLER_0_32_681
*11957 FILLER_0_32_693
*11958 FILLER_0_32_699
*11959 FILLER_0_32_701
*11960 FILLER_0_32_713
*11961 FILLER_0_32_725
*11962 FILLER_0_32_737
*11963 FILLER_0_32_749
*11964 FILLER_0_32_755
*11965 FILLER_0_32_757
*11966 FILLER_0_32_769
*11967 FILLER_0_32_77
*11968 FILLER_0_32_781
*11969 FILLER_0_32_793
*11970 FILLER_0_32_805
*11971 FILLER_0_32_811
*11972 FILLER_0_32_813
*11973 FILLER_0_32_825
*11974 FILLER_0_32_83
*11975 FILLER_0_32_837
*11976 FILLER_0_32_849
*11977 FILLER_0_32_85
*11978 FILLER_0_32_861
*11979 FILLER_0_32_867
*11980 FILLER_0_32_869
*11981 FILLER_0_32_881
*11982 FILLER_0_32_893
*11983 FILLER_0_32_905
*11984 FILLER_0_32_917
*11985 FILLER_0_32_923
*11986 FILLER_0_32_925
*11987 FILLER_0_32_937
*11988 FILLER_0_32_949
*11989 FILLER_0_32_961
*11990 FILLER_0_32_97
*11991 FILLER_0_32_973
*11992 FILLER_0_32_979
*11993 FILLER_0_32_981
*11994 FILLER_0_32_993
*11995 FILLER_0_33_1001
*11996 FILLER_0_33_1007
*11997 FILLER_0_33_1009
*11998 FILLER_0_33_1021
*11999 FILLER_0_33_1033
*12000 FILLER_0_33_1045
*12001 FILLER_0_33_105
*12002 FILLER_0_33_1057
*12003 FILLER_0_33_111
*12004 FILLER_0_33_113
*12005 FILLER_0_33_125
*12006 FILLER_0_33_137
*12007 FILLER_0_33_149
*12008 FILLER_0_33_161
*12009 FILLER_0_33_167
*12010 FILLER_0_33_169
*12011 FILLER_0_33_181
*12012 FILLER_0_33_19
*12013 FILLER_0_33_193
*12014 FILLER_0_33_205
*12015 FILLER_0_33_217
*12016 FILLER_0_33_223
*12017 FILLER_0_33_225
*12018 FILLER_0_33_237
*12019 FILLER_0_33_249
*12020 FILLER_0_33_261
*12021 FILLER_0_33_273
*12022 FILLER_0_33_279
*12023 FILLER_0_33_281
*12024 FILLER_0_33_293
*12025 FILLER_0_33_305
*12026 FILLER_0_33_31
*12027 FILLER_0_33_317
*12028 FILLER_0_33_329
*12029 FILLER_0_33_335
*12030 FILLER_0_33_337
*12031 FILLER_0_33_349
*12032 FILLER_0_33_361
*12033 FILLER_0_33_373
*12034 FILLER_0_33_385
*12035 FILLER_0_33_391
*12036 FILLER_0_33_393
*12037 FILLER_0_33_405
*12038 FILLER_0_33_417
*12039 FILLER_0_33_429
*12040 FILLER_0_33_43
*12041 FILLER_0_33_441
*12042 FILLER_0_33_447
*12043 FILLER_0_33_449
*12044 FILLER_0_33_461
*12045 FILLER_0_33_473
*12046 FILLER_0_33_485
*12047 FILLER_0_33_497
*12048 FILLER_0_33_503
*12049 FILLER_0_33_505
*12050 FILLER_0_33_517
*12051 FILLER_0_33_529
*12052 FILLER_0_33_541
*12053 FILLER_0_33_55
*12054 FILLER_0_33_553
*12055 FILLER_0_33_559
*12056 FILLER_0_33_561
*12057 FILLER_0_33_57
*12058 FILLER_0_33_573
*12059 FILLER_0_33_585
*12060 FILLER_0_33_597
*12061 FILLER_0_33_609
*12062 FILLER_0_33_615
*12063 FILLER_0_33_617
*12064 FILLER_0_33_629
*12065 FILLER_0_33_641
*12066 FILLER_0_33_653
*12067 FILLER_0_33_665
*12068 FILLER_0_33_671
*12069 FILLER_0_33_673
*12070 FILLER_0_33_685
*12071 FILLER_0_33_69
*12072 FILLER_0_33_697
*12073 FILLER_0_33_7
*12074 FILLER_0_33_709
*12075 FILLER_0_33_721
*12076 FILLER_0_33_727
*12077 FILLER_0_33_729
*12078 FILLER_0_33_741
*12079 FILLER_0_33_753
*12080 FILLER_0_33_765
*12081 FILLER_0_33_777
*12082 FILLER_0_33_783
*12083 FILLER_0_33_785
*12084 FILLER_0_33_797
*12085 FILLER_0_33_809
*12086 FILLER_0_33_81
*12087 FILLER_0_33_821
*12088 FILLER_0_33_833
*12089 FILLER_0_33_839
*12090 FILLER_0_33_841
*12091 FILLER_0_33_853
*12092 FILLER_0_33_865
*12093 FILLER_0_33_877
*12094 FILLER_0_33_889
*12095 FILLER_0_33_895
*12096 FILLER_0_33_897
*12097 FILLER_0_33_909
*12098 FILLER_0_33_921
*12099 FILLER_0_33_93
*12100 FILLER_0_33_933
*12101 FILLER_0_33_945
*12102 FILLER_0_33_951
*12103 FILLER_0_33_953
*12104 FILLER_0_33_965
*12105 FILLER_0_33_977
*12106 FILLER_0_33_989
*12107 FILLER_0_34_1005
*12108 FILLER_0_34_1017
*12109 FILLER_0_34_1029
*12110 FILLER_0_34_1035
*12111 FILLER_0_34_1037
*12112 FILLER_0_34_1049
*12113 FILLER_0_34_1057
*12114 FILLER_0_34_109
*12115 FILLER_0_34_121
*12116 FILLER_0_34_133
*12117 FILLER_0_34_139
*12118 FILLER_0_34_141
*12119 FILLER_0_34_15
*12120 FILLER_0_34_153
*12121 FILLER_0_34_165
*12122 FILLER_0_34_177
*12123 FILLER_0_34_189
*12124 FILLER_0_34_195
*12125 FILLER_0_34_197
*12126 FILLER_0_34_209
*12127 FILLER_0_34_221
*12128 FILLER_0_34_233
*12129 FILLER_0_34_245
*12130 FILLER_0_34_251
*12131 FILLER_0_34_253
*12132 FILLER_0_34_265
*12133 FILLER_0_34_27
*12134 FILLER_0_34_277
*12135 FILLER_0_34_289
*12136 FILLER_0_34_29
*12137 FILLER_0_34_3
*12138 FILLER_0_34_301
*12139 FILLER_0_34_307
*12140 FILLER_0_34_309
*12141 FILLER_0_34_321
*12142 FILLER_0_34_333
*12143 FILLER_0_34_345
*12144 FILLER_0_34_357
*12145 FILLER_0_34_363
*12146 FILLER_0_34_365
*12147 FILLER_0_34_377
*12148 FILLER_0_34_389
*12149 FILLER_0_34_401
*12150 FILLER_0_34_41
*12151 FILLER_0_34_413
*12152 FILLER_0_34_419
*12153 FILLER_0_34_421
*12154 FILLER_0_34_433
*12155 FILLER_0_34_445
*12156 FILLER_0_34_457
*12157 FILLER_0_34_469
*12158 FILLER_0_34_475
*12159 FILLER_0_34_477
*12160 FILLER_0_34_489
*12161 FILLER_0_34_501
*12162 FILLER_0_34_513
*12163 FILLER_0_34_525
*12164 FILLER_0_34_53
*12165 FILLER_0_34_531
*12166 FILLER_0_34_533
*12167 FILLER_0_34_545
*12168 FILLER_0_34_557
*12169 FILLER_0_34_569
*12170 FILLER_0_34_581
*12171 FILLER_0_34_587
*12172 FILLER_0_34_589
*12173 FILLER_0_34_601
*12174 FILLER_0_34_613
*12175 FILLER_0_34_625
*12176 FILLER_0_34_637
*12177 FILLER_0_34_643
*12178 FILLER_0_34_645
*12179 FILLER_0_34_65
*12180 FILLER_0_34_657
*12181 FILLER_0_34_669
*12182 FILLER_0_34_681
*12183 FILLER_0_34_693
*12184 FILLER_0_34_699
*12185 FILLER_0_34_701
*12186 FILLER_0_34_713
*12187 FILLER_0_34_725
*12188 FILLER_0_34_737
*12189 FILLER_0_34_749
*12190 FILLER_0_34_755
*12191 FILLER_0_34_757
*12192 FILLER_0_34_769
*12193 FILLER_0_34_77
*12194 FILLER_0_34_781
*12195 FILLER_0_34_793
*12196 FILLER_0_34_805
*12197 FILLER_0_34_811
*12198 FILLER_0_34_813
*12199 FILLER_0_34_825
*12200 FILLER_0_34_83
*12201 FILLER_0_34_837
*12202 FILLER_0_34_849
*12203 FILLER_0_34_85
*12204 FILLER_0_34_861
*12205 FILLER_0_34_867
*12206 FILLER_0_34_869
*12207 FILLER_0_34_881
*12208 FILLER_0_34_893
*12209 FILLER_0_34_905
*12210 FILLER_0_34_917
*12211 FILLER_0_34_923
*12212 FILLER_0_34_925
*12213 FILLER_0_34_937
*12214 FILLER_0_34_949
*12215 FILLER_0_34_961
*12216 FILLER_0_34_97
*12217 FILLER_0_34_973
*12218 FILLER_0_34_979
*12219 FILLER_0_34_981
*12220 FILLER_0_34_993
*12221 FILLER_0_35_1001
*12222 FILLER_0_35_1007
*12223 FILLER_0_35_1009
*12224 FILLER_0_35_1021
*12225 FILLER_0_35_1033
*12226 FILLER_0_35_1045
*12227 FILLER_0_35_105
*12228 FILLER_0_35_1057
*12229 FILLER_0_35_111
*12230 FILLER_0_35_113
*12231 FILLER_0_35_125
*12232 FILLER_0_35_137
*12233 FILLER_0_35_149
*12234 FILLER_0_35_15
*12235 FILLER_0_35_161
*12236 FILLER_0_35_167
*12237 FILLER_0_35_169
*12238 FILLER_0_35_181
*12239 FILLER_0_35_193
*12240 FILLER_0_35_205
*12241 FILLER_0_35_217
*12242 FILLER_0_35_223
*12243 FILLER_0_35_225
*12244 FILLER_0_35_237
*12245 FILLER_0_35_249
*12246 FILLER_0_35_261
*12247 FILLER_0_35_27
*12248 FILLER_0_35_273
*12249 FILLER_0_35_279
*12250 FILLER_0_35_281
*12251 FILLER_0_35_293
*12252 FILLER_0_35_3
*12253 FILLER_0_35_305
*12254 FILLER_0_35_317
*12255 FILLER_0_35_329
*12256 FILLER_0_35_335
*12257 FILLER_0_35_337
*12258 FILLER_0_35_349
*12259 FILLER_0_35_361
*12260 FILLER_0_35_373
*12261 FILLER_0_35_385
*12262 FILLER_0_35_39
*12263 FILLER_0_35_391
*12264 FILLER_0_35_393
*12265 FILLER_0_35_405
*12266 FILLER_0_35_417
*12267 FILLER_0_35_429
*12268 FILLER_0_35_441
*12269 FILLER_0_35_447
*12270 FILLER_0_35_449
*12271 FILLER_0_35_461
*12272 FILLER_0_35_473
*12273 FILLER_0_35_485
*12274 FILLER_0_35_497
*12275 FILLER_0_35_503
*12276 FILLER_0_35_505
*12277 FILLER_0_35_51
*12278 FILLER_0_35_517
*12279 FILLER_0_35_529
*12280 FILLER_0_35_541
*12281 FILLER_0_35_55
*12282 FILLER_0_35_553
*12283 FILLER_0_35_559
*12284 FILLER_0_35_561
*12285 FILLER_0_35_57
*12286 FILLER_0_35_573
*12287 FILLER_0_35_585
*12288 FILLER_0_35_597
*12289 FILLER_0_35_609
*12290 FILLER_0_35_615
*12291 FILLER_0_35_617
*12292 FILLER_0_35_629
*12293 FILLER_0_35_641
*12294 FILLER_0_35_653
*12295 FILLER_0_35_665
*12296 FILLER_0_35_671
*12297 FILLER_0_35_673
*12298 FILLER_0_35_685
*12299 FILLER_0_35_69
*12300 FILLER_0_35_697
*12301 FILLER_0_35_709
*12302 FILLER_0_35_721
*12303 FILLER_0_35_727
*12304 FILLER_0_35_729
*12305 FILLER_0_35_741
*12306 FILLER_0_35_753
*12307 FILLER_0_35_765
*12308 FILLER_0_35_777
*12309 FILLER_0_35_783
*12310 FILLER_0_35_785
*12311 FILLER_0_35_797
*12312 FILLER_0_35_809
*12313 FILLER_0_35_81
*12314 FILLER_0_35_821
*12315 FILLER_0_35_833
*12316 FILLER_0_35_839
*12317 FILLER_0_35_841
*12318 FILLER_0_35_853
*12319 FILLER_0_35_865
*12320 FILLER_0_35_877
*12321 FILLER_0_35_889
*12322 FILLER_0_35_895
*12323 FILLER_0_35_897
*12324 FILLER_0_35_909
*12325 FILLER_0_35_921
*12326 FILLER_0_35_93
*12327 FILLER_0_35_933
*12328 FILLER_0_35_945
*12329 FILLER_0_35_951
*12330 FILLER_0_35_953
*12331 FILLER_0_35_965
*12332 FILLER_0_35_977
*12333 FILLER_0_35_989
*12334 FILLER_0_36_1005
*12335 FILLER_0_36_1017
*12336 FILLER_0_36_1029
*12337 FILLER_0_36_1035
*12338 FILLER_0_36_1037
*12339 FILLER_0_36_1049
*12340 FILLER_0_36_1057
*12341 FILLER_0_36_109
*12342 FILLER_0_36_121
*12343 FILLER_0_36_133
*12344 FILLER_0_36_139
*12345 FILLER_0_36_141
*12346 FILLER_0_36_15
*12347 FILLER_0_36_153
*12348 FILLER_0_36_165
*12349 FILLER_0_36_177
*12350 FILLER_0_36_189
*12351 FILLER_0_36_195
*12352 FILLER_0_36_197
*12353 FILLER_0_36_209
*12354 FILLER_0_36_221
*12355 FILLER_0_36_233
*12356 FILLER_0_36_245
*12357 FILLER_0_36_251
*12358 FILLER_0_36_253
*12359 FILLER_0_36_265
*12360 FILLER_0_36_27
*12361 FILLER_0_36_277
*12362 FILLER_0_36_289
*12363 FILLER_0_36_29
*12364 FILLER_0_36_3
*12365 FILLER_0_36_301
*12366 FILLER_0_36_307
*12367 FILLER_0_36_309
*12368 FILLER_0_36_321
*12369 FILLER_0_36_333
*12370 FILLER_0_36_345
*12371 FILLER_0_36_357
*12372 FILLER_0_36_363
*12373 FILLER_0_36_365
*12374 FILLER_0_36_377
*12375 FILLER_0_36_389
*12376 FILLER_0_36_401
*12377 FILLER_0_36_41
*12378 FILLER_0_36_413
*12379 FILLER_0_36_419
*12380 FILLER_0_36_421
*12381 FILLER_0_36_433
*12382 FILLER_0_36_445
*12383 FILLER_0_36_457
*12384 FILLER_0_36_469
*12385 FILLER_0_36_475
*12386 FILLER_0_36_477
*12387 FILLER_0_36_489
*12388 FILLER_0_36_501
*12389 FILLER_0_36_513
*12390 FILLER_0_36_525
*12391 FILLER_0_36_53
*12392 FILLER_0_36_531
*12393 FILLER_0_36_533
*12394 FILLER_0_36_545
*12395 FILLER_0_36_557
*12396 FILLER_0_36_569
*12397 FILLER_0_36_581
*12398 FILLER_0_36_587
*12399 FILLER_0_36_589
*12400 FILLER_0_36_601
*12401 FILLER_0_36_613
*12402 FILLER_0_36_625
*12403 FILLER_0_36_637
*12404 FILLER_0_36_643
*12405 FILLER_0_36_645
*12406 FILLER_0_36_65
*12407 FILLER_0_36_657
*12408 FILLER_0_36_669
*12409 FILLER_0_36_681
*12410 FILLER_0_36_693
*12411 FILLER_0_36_699
*12412 FILLER_0_36_701
*12413 FILLER_0_36_713
*12414 FILLER_0_36_725
*12415 FILLER_0_36_737
*12416 FILLER_0_36_749
*12417 FILLER_0_36_755
*12418 FILLER_0_36_757
*12419 FILLER_0_36_769
*12420 FILLER_0_36_77
*12421 FILLER_0_36_781
*12422 FILLER_0_36_793
*12423 FILLER_0_36_805
*12424 FILLER_0_36_811
*12425 FILLER_0_36_813
*12426 FILLER_0_36_825
*12427 FILLER_0_36_83
*12428 FILLER_0_36_837
*12429 FILLER_0_36_849
*12430 FILLER_0_36_85
*12431 FILLER_0_36_861
*12432 FILLER_0_36_867
*12433 FILLER_0_36_869
*12434 FILLER_0_36_881
*12435 FILLER_0_36_893
*12436 FILLER_0_36_905
*12437 FILLER_0_36_917
*12438 FILLER_0_36_923
*12439 FILLER_0_36_925
*12440 FILLER_0_36_937
*12441 FILLER_0_36_949
*12442 FILLER_0_36_961
*12443 FILLER_0_36_97
*12444 FILLER_0_36_973
*12445 FILLER_0_36_979
*12446 FILLER_0_36_981
*12447 FILLER_0_36_993
*12448 FILLER_0_37_1001
*12449 FILLER_0_37_1007
*12450 FILLER_0_37_1009
*12451 FILLER_0_37_1021
*12452 FILLER_0_37_1033
*12453 FILLER_0_37_1045
*12454 FILLER_0_37_105
*12455 FILLER_0_37_1057
*12456 FILLER_0_37_111
*12457 FILLER_0_37_113
*12458 FILLER_0_37_125
*12459 FILLER_0_37_137
*12460 FILLER_0_37_149
*12461 FILLER_0_37_15
*12462 FILLER_0_37_161
*12463 FILLER_0_37_167
*12464 FILLER_0_37_169
*12465 FILLER_0_37_181
*12466 FILLER_0_37_193
*12467 FILLER_0_37_205
*12468 FILLER_0_37_217
*12469 FILLER_0_37_223
*12470 FILLER_0_37_225
*12471 FILLER_0_37_237
*12472 FILLER_0_37_249
*12473 FILLER_0_37_261
*12474 FILLER_0_37_27
*12475 FILLER_0_37_273
*12476 FILLER_0_37_279
*12477 FILLER_0_37_281
*12478 FILLER_0_37_293
*12479 FILLER_0_37_3
*12480 FILLER_0_37_305
*12481 FILLER_0_37_317
*12482 FILLER_0_37_329
*12483 FILLER_0_37_335
*12484 FILLER_0_37_337
*12485 FILLER_0_37_349
*12486 FILLER_0_37_361
*12487 FILLER_0_37_373
*12488 FILLER_0_37_385
*12489 FILLER_0_37_39
*12490 FILLER_0_37_391
*12491 FILLER_0_37_393
*12492 FILLER_0_37_405
*12493 FILLER_0_37_417
*12494 FILLER_0_37_429
*12495 FILLER_0_37_441
*12496 FILLER_0_37_447
*12497 FILLER_0_37_449
*12498 FILLER_0_37_461
*12499 FILLER_0_37_473
*12500 FILLER_0_37_485
*12501 FILLER_0_37_497
*12502 FILLER_0_37_503
*12503 FILLER_0_37_505
*12504 FILLER_0_37_51
*12505 FILLER_0_37_517
*12506 FILLER_0_37_529
*12507 FILLER_0_37_541
*12508 FILLER_0_37_55
*12509 FILLER_0_37_553
*12510 FILLER_0_37_559
*12511 FILLER_0_37_561
*12512 FILLER_0_37_57
*12513 FILLER_0_37_573
*12514 FILLER_0_37_585
*12515 FILLER_0_37_597
*12516 FILLER_0_37_609
*12517 FILLER_0_37_615
*12518 FILLER_0_37_617
*12519 FILLER_0_37_629
*12520 FILLER_0_37_641
*12521 FILLER_0_37_653
*12522 FILLER_0_37_665
*12523 FILLER_0_37_671
*12524 FILLER_0_37_673
*12525 FILLER_0_37_685
*12526 FILLER_0_37_69
*12527 FILLER_0_37_697
*12528 FILLER_0_37_709
*12529 FILLER_0_37_721
*12530 FILLER_0_37_727
*12531 FILLER_0_37_729
*12532 FILLER_0_37_741
*12533 FILLER_0_37_753
*12534 FILLER_0_37_765
*12535 FILLER_0_37_777
*12536 FILLER_0_37_783
*12537 FILLER_0_37_785
*12538 FILLER_0_37_797
*12539 FILLER_0_37_809
*12540 FILLER_0_37_81
*12541 FILLER_0_37_821
*12542 FILLER_0_37_833
*12543 FILLER_0_37_839
*12544 FILLER_0_37_841
*12545 FILLER_0_37_853
*12546 FILLER_0_37_865
*12547 FILLER_0_37_877
*12548 FILLER_0_37_889
*12549 FILLER_0_37_895
*12550 FILLER_0_37_897
*12551 FILLER_0_37_909
*12552 FILLER_0_37_921
*12553 FILLER_0_37_93
*12554 FILLER_0_37_933
*12555 FILLER_0_37_945
*12556 FILLER_0_37_951
*12557 FILLER_0_37_953
*12558 FILLER_0_37_965
*12559 FILLER_0_37_977
*12560 FILLER_0_37_989
*12561 FILLER_0_38_1005
*12562 FILLER_0_38_1017
*12563 FILLER_0_38_1029
*12564 FILLER_0_38_1035
*12565 FILLER_0_38_1037
*12566 FILLER_0_38_1049
*12567 FILLER_0_38_1057
*12568 FILLER_0_38_109
*12569 FILLER_0_38_121
*12570 FILLER_0_38_133
*12571 FILLER_0_38_139
*12572 FILLER_0_38_141
*12573 FILLER_0_38_153
*12574 FILLER_0_38_165
*12575 FILLER_0_38_177
*12576 FILLER_0_38_18
*12577 FILLER_0_38_189
*12578 FILLER_0_38_195
*12579 FILLER_0_38_197
*12580 FILLER_0_38_209
*12581 FILLER_0_38_221
*12582 FILLER_0_38_233
*12583 FILLER_0_38_245
*12584 FILLER_0_38_251
*12585 FILLER_0_38_253
*12586 FILLER_0_38_26
*12587 FILLER_0_38_265
*12588 FILLER_0_38_277
*12589 FILLER_0_38_289
*12590 FILLER_0_38_29
*12591 FILLER_0_38_301
*12592 FILLER_0_38_307
*12593 FILLER_0_38_309
*12594 FILLER_0_38_321
*12595 FILLER_0_38_333
*12596 FILLER_0_38_345
*12597 FILLER_0_38_357
*12598 FILLER_0_38_363
*12599 FILLER_0_38_365
*12600 FILLER_0_38_377
*12601 FILLER_0_38_389
*12602 FILLER_0_38_401
*12603 FILLER_0_38_41
*12604 FILLER_0_38_413
*12605 FILLER_0_38_419
*12606 FILLER_0_38_421
*12607 FILLER_0_38_433
*12608 FILLER_0_38_445
*12609 FILLER_0_38_457
*12610 FILLER_0_38_469
*12611 FILLER_0_38_475
*12612 FILLER_0_38_477
*12613 FILLER_0_38_489
*12614 FILLER_0_38_501
*12615 FILLER_0_38_513
*12616 FILLER_0_38_525
*12617 FILLER_0_38_53
*12618 FILLER_0_38_531
*12619 FILLER_0_38_533
*12620 FILLER_0_38_545
*12621 FILLER_0_38_557
*12622 FILLER_0_38_569
*12623 FILLER_0_38_581
*12624 FILLER_0_38_587
*12625 FILLER_0_38_589
*12626 FILLER_0_38_6
*12627 FILLER_0_38_601
*12628 FILLER_0_38_613
*12629 FILLER_0_38_625
*12630 FILLER_0_38_637
*12631 FILLER_0_38_643
*12632 FILLER_0_38_645
*12633 FILLER_0_38_65
*12634 FILLER_0_38_657
*12635 FILLER_0_38_669
*12636 FILLER_0_38_681
*12637 FILLER_0_38_693
*12638 FILLER_0_38_699
*12639 FILLER_0_38_701
*12640 FILLER_0_38_713
*12641 FILLER_0_38_725
*12642 FILLER_0_38_737
*12643 FILLER_0_38_749
*12644 FILLER_0_38_755
*12645 FILLER_0_38_757
*12646 FILLER_0_38_769
*12647 FILLER_0_38_77
*12648 FILLER_0_38_781
*12649 FILLER_0_38_793
*12650 FILLER_0_38_805
*12651 FILLER_0_38_811
*12652 FILLER_0_38_813
*12653 FILLER_0_38_825
*12654 FILLER_0_38_83
*12655 FILLER_0_38_837
*12656 FILLER_0_38_849
*12657 FILLER_0_38_85
*12658 FILLER_0_38_861
*12659 FILLER_0_38_867
*12660 FILLER_0_38_869
*12661 FILLER_0_38_881
*12662 FILLER_0_38_893
*12663 FILLER_0_38_905
*12664 FILLER_0_38_917
*12665 FILLER_0_38_923
*12666 FILLER_0_38_925
*12667 FILLER_0_38_937
*12668 FILLER_0_38_949
*12669 FILLER_0_38_961
*12670 FILLER_0_38_97
*12671 FILLER_0_38_973
*12672 FILLER_0_38_979
*12673 FILLER_0_38_981
*12674 FILLER_0_38_993
*12675 FILLER_0_39_1001
*12676 FILLER_0_39_1007
*12677 FILLER_0_39_1009
*12678 FILLER_0_39_1021
*12679 FILLER_0_39_1033
*12680 FILLER_0_39_1045
*12681 FILLER_0_39_105
*12682 FILLER_0_39_1057
*12683 FILLER_0_39_111
*12684 FILLER_0_39_113
*12685 FILLER_0_39_125
*12686 FILLER_0_39_137
*12687 FILLER_0_39_149
*12688 FILLER_0_39_15
*12689 FILLER_0_39_161
*12690 FILLER_0_39_167
*12691 FILLER_0_39_169
*12692 FILLER_0_39_181
*12693 FILLER_0_39_193
*12694 FILLER_0_39_205
*12695 FILLER_0_39_217
*12696 FILLER_0_39_223
*12697 FILLER_0_39_225
*12698 FILLER_0_39_237
*12699 FILLER_0_39_249
*12700 FILLER_0_39_261
*12701 FILLER_0_39_27
*12702 FILLER_0_39_273
*12703 FILLER_0_39_279
*12704 FILLER_0_39_281
*12705 FILLER_0_39_293
*12706 FILLER_0_39_3
*12707 FILLER_0_39_305
*12708 FILLER_0_39_317
*12709 FILLER_0_39_329
*12710 FILLER_0_39_335
*12711 FILLER_0_39_337
*12712 FILLER_0_39_349
*12713 FILLER_0_39_361
*12714 FILLER_0_39_373
*12715 FILLER_0_39_385
*12716 FILLER_0_39_39
*12717 FILLER_0_39_391
*12718 FILLER_0_39_393
*12719 FILLER_0_39_405
*12720 FILLER_0_39_417
*12721 FILLER_0_39_429
*12722 FILLER_0_39_441
*12723 FILLER_0_39_447
*12724 FILLER_0_39_449
*12725 FILLER_0_39_461
*12726 FILLER_0_39_473
*12727 FILLER_0_39_485
*12728 FILLER_0_39_497
*12729 FILLER_0_39_503
*12730 FILLER_0_39_505
*12731 FILLER_0_39_51
*12732 FILLER_0_39_517
*12733 FILLER_0_39_529
*12734 FILLER_0_39_541
*12735 FILLER_0_39_55
*12736 FILLER_0_39_553
*12737 FILLER_0_39_559
*12738 FILLER_0_39_561
*12739 FILLER_0_39_57
*12740 FILLER_0_39_573
*12741 FILLER_0_39_585
*12742 FILLER_0_39_597
*12743 FILLER_0_39_609
*12744 FILLER_0_39_615
*12745 FILLER_0_39_617
*12746 FILLER_0_39_629
*12747 FILLER_0_39_641
*12748 FILLER_0_39_653
*12749 FILLER_0_39_665
*12750 FILLER_0_39_671
*12751 FILLER_0_39_673
*12752 FILLER_0_39_685
*12753 FILLER_0_39_69
*12754 FILLER_0_39_697
*12755 FILLER_0_39_709
*12756 FILLER_0_39_721
*12757 FILLER_0_39_727
*12758 FILLER_0_39_729
*12759 FILLER_0_39_741
*12760 FILLER_0_39_753
*12761 FILLER_0_39_765
*12762 FILLER_0_39_777
*12763 FILLER_0_39_783
*12764 FILLER_0_39_785
*12765 FILLER_0_39_797
*12766 FILLER_0_39_809
*12767 FILLER_0_39_81
*12768 FILLER_0_39_821
*12769 FILLER_0_39_833
*12770 FILLER_0_39_839
*12771 FILLER_0_39_841
*12772 FILLER_0_39_853
*12773 FILLER_0_39_865
*12774 FILLER_0_39_877
*12775 FILLER_0_39_889
*12776 FILLER_0_39_895
*12777 FILLER_0_39_897
*12778 FILLER_0_39_909
*12779 FILLER_0_39_921
*12780 FILLER_0_39_93
*12781 FILLER_0_39_933
*12782 FILLER_0_39_945
*12783 FILLER_0_39_951
*12784 FILLER_0_39_953
*12785 FILLER_0_39_965
*12786 FILLER_0_39_977
*12787 FILLER_0_39_989
*12788 FILLER_0_3_1001
*12789 FILLER_0_3_1007
*12790 FILLER_0_3_1009
*12791 FILLER_0_3_1021
*12792 FILLER_0_3_1033
*12793 FILLER_0_3_1045
*12794 FILLER_0_3_105
*12795 FILLER_0_3_1057
*12796 FILLER_0_3_111
*12797 FILLER_0_3_113
*12798 FILLER_0_3_125
*12799 FILLER_0_3_137
*12800 FILLER_0_3_149
*12801 FILLER_0_3_15
*12802 FILLER_0_3_161
*12803 FILLER_0_3_167
*12804 FILLER_0_3_169
*12805 FILLER_0_3_181
*12806 FILLER_0_3_193
*12807 FILLER_0_3_205
*12808 FILLER_0_3_217
*12809 FILLER_0_3_223
*12810 FILLER_0_3_225
*12811 FILLER_0_3_237
*12812 FILLER_0_3_249
*12813 FILLER_0_3_261
*12814 FILLER_0_3_27
*12815 FILLER_0_3_273
*12816 FILLER_0_3_279
*12817 FILLER_0_3_281
*12818 FILLER_0_3_293
*12819 FILLER_0_3_3
*12820 FILLER_0_3_305
*12821 FILLER_0_3_317
*12822 FILLER_0_3_329
*12823 FILLER_0_3_335
*12824 FILLER_0_3_337
*12825 FILLER_0_3_349
*12826 FILLER_0_3_361
*12827 FILLER_0_3_373
*12828 FILLER_0_3_385
*12829 FILLER_0_3_39
*12830 FILLER_0_3_391
*12831 FILLER_0_3_393
*12832 FILLER_0_3_405
*12833 FILLER_0_3_417
*12834 FILLER_0_3_429
*12835 FILLER_0_3_441
*12836 FILLER_0_3_447
*12837 FILLER_0_3_449
*12838 FILLER_0_3_461
*12839 FILLER_0_3_473
*12840 FILLER_0_3_485
*12841 FILLER_0_3_497
*12842 FILLER_0_3_503
*12843 FILLER_0_3_505
*12844 FILLER_0_3_51
*12845 FILLER_0_3_517
*12846 FILLER_0_3_529
*12847 FILLER_0_3_541
*12848 FILLER_0_3_55
*12849 FILLER_0_3_553
*12850 FILLER_0_3_559
*12851 FILLER_0_3_561
*12852 FILLER_0_3_57
*12853 FILLER_0_3_573
*12854 FILLER_0_3_585
*12855 FILLER_0_3_597
*12856 FILLER_0_3_609
*12857 FILLER_0_3_615
*12858 FILLER_0_3_617
*12859 FILLER_0_3_629
*12860 FILLER_0_3_641
*12861 FILLER_0_3_653
*12862 FILLER_0_3_665
*12863 FILLER_0_3_671
*12864 FILLER_0_3_673
*12865 FILLER_0_3_685
*12866 FILLER_0_3_69
*12867 FILLER_0_3_697
*12868 FILLER_0_3_709
*12869 FILLER_0_3_721
*12870 FILLER_0_3_727
*12871 FILLER_0_3_729
*12872 FILLER_0_3_741
*12873 FILLER_0_3_753
*12874 FILLER_0_3_765
*12875 FILLER_0_3_777
*12876 FILLER_0_3_783
*12877 FILLER_0_3_785
*12878 FILLER_0_3_797
*12879 FILLER_0_3_809
*12880 FILLER_0_3_81
*12881 FILLER_0_3_821
*12882 FILLER_0_3_833
*12883 FILLER_0_3_839
*12884 FILLER_0_3_841
*12885 FILLER_0_3_853
*12886 FILLER_0_3_865
*12887 FILLER_0_3_877
*12888 FILLER_0_3_889
*12889 FILLER_0_3_895
*12890 FILLER_0_3_897
*12891 FILLER_0_3_909
*12892 FILLER_0_3_921
*12893 FILLER_0_3_93
*12894 FILLER_0_3_933
*12895 FILLER_0_3_945
*12896 FILLER_0_3_951
*12897 FILLER_0_3_953
*12898 FILLER_0_3_965
*12899 FILLER_0_3_977
*12900 FILLER_0_3_989
*12901 FILLER_0_40_1005
*12902 FILLER_0_40_1017
*12903 FILLER_0_40_1029
*12904 FILLER_0_40_1035
*12905 FILLER_0_40_1037
*12906 FILLER_0_40_1049
*12907 FILLER_0_40_1057
*12908 FILLER_0_40_109
*12909 FILLER_0_40_121
*12910 FILLER_0_40_133
*12911 FILLER_0_40_139
*12912 FILLER_0_40_141
*12913 FILLER_0_40_15
*12914 FILLER_0_40_153
*12915 FILLER_0_40_165
*12916 FILLER_0_40_177
*12917 FILLER_0_40_189
*12918 FILLER_0_40_195
*12919 FILLER_0_40_197
*12920 FILLER_0_40_209
*12921 FILLER_0_40_221
*12922 FILLER_0_40_233
*12923 FILLER_0_40_245
*12924 FILLER_0_40_251
*12925 FILLER_0_40_253
*12926 FILLER_0_40_265
*12927 FILLER_0_40_27
*12928 FILLER_0_40_277
*12929 FILLER_0_40_289
*12930 FILLER_0_40_29
*12931 FILLER_0_40_3
*12932 FILLER_0_40_301
*12933 FILLER_0_40_307
*12934 FILLER_0_40_309
*12935 FILLER_0_40_321
*12936 FILLER_0_40_333
*12937 FILLER_0_40_345
*12938 FILLER_0_40_357
*12939 FILLER_0_40_363
*12940 FILLER_0_40_365
*12941 FILLER_0_40_377
*12942 FILLER_0_40_389
*12943 FILLER_0_40_401
*12944 FILLER_0_40_41
*12945 FILLER_0_40_413
*12946 FILLER_0_40_419
*12947 FILLER_0_40_421
*12948 FILLER_0_40_433
*12949 FILLER_0_40_445
*12950 FILLER_0_40_457
*12951 FILLER_0_40_469
*12952 FILLER_0_40_475
*12953 FILLER_0_40_477
*12954 FILLER_0_40_489
*12955 FILLER_0_40_501
*12956 FILLER_0_40_513
*12957 FILLER_0_40_525
*12958 FILLER_0_40_53
*12959 FILLER_0_40_531
*12960 FILLER_0_40_533
*12961 FILLER_0_40_545
*12962 FILLER_0_40_557
*12963 FILLER_0_40_569
*12964 FILLER_0_40_581
*12965 FILLER_0_40_587
*12966 FILLER_0_40_589
*12967 FILLER_0_40_601
*12968 FILLER_0_40_613
*12969 FILLER_0_40_625
*12970 FILLER_0_40_637
*12971 FILLER_0_40_643
*12972 FILLER_0_40_645
*12973 FILLER_0_40_65
*12974 FILLER_0_40_657
*12975 FILLER_0_40_669
*12976 FILLER_0_40_681
*12977 FILLER_0_40_693
*12978 FILLER_0_40_699
*12979 FILLER_0_40_701
*12980 FILLER_0_40_713
*12981 FILLER_0_40_725
*12982 FILLER_0_40_737
*12983 FILLER_0_40_749
*12984 FILLER_0_40_755
*12985 FILLER_0_40_757
*12986 FILLER_0_40_769
*12987 FILLER_0_40_77
*12988 FILLER_0_40_781
*12989 FILLER_0_40_793
*12990 FILLER_0_40_805
*12991 FILLER_0_40_811
*12992 FILLER_0_40_813
*12993 FILLER_0_40_825
*12994 FILLER_0_40_83
*12995 FILLER_0_40_837
*12996 FILLER_0_40_849
*12997 FILLER_0_40_85
*12998 FILLER_0_40_861
*12999 FILLER_0_40_867
*13000 FILLER_0_40_869
*13001 FILLER_0_40_881
*13002 FILLER_0_40_893
*13003 FILLER_0_40_905
*13004 FILLER_0_40_917
*13005 FILLER_0_40_923
*13006 FILLER_0_40_925
*13007 FILLER_0_40_937
*13008 FILLER_0_40_949
*13009 FILLER_0_40_961
*13010 FILLER_0_40_97
*13011 FILLER_0_40_973
*13012 FILLER_0_40_979
*13013 FILLER_0_40_981
*13014 FILLER_0_40_993
*13015 FILLER_0_41_1001
*13016 FILLER_0_41_1007
*13017 FILLER_0_41_1009
*13018 FILLER_0_41_1021
*13019 FILLER_0_41_1033
*13020 FILLER_0_41_1045
*13021 FILLER_0_41_105
*13022 FILLER_0_41_1057
*13023 FILLER_0_41_111
*13024 FILLER_0_41_113
*13025 FILLER_0_41_125
*13026 FILLER_0_41_137
*13027 FILLER_0_41_149
*13028 FILLER_0_41_15
*13029 FILLER_0_41_161
*13030 FILLER_0_41_167
*13031 FILLER_0_41_169
*13032 FILLER_0_41_181
*13033 FILLER_0_41_193
*13034 FILLER_0_41_205
*13035 FILLER_0_41_217
*13036 FILLER_0_41_223
*13037 FILLER_0_41_225
*13038 FILLER_0_41_237
*13039 FILLER_0_41_249
*13040 FILLER_0_41_261
*13041 FILLER_0_41_27
*13042 FILLER_0_41_273
*13043 FILLER_0_41_279
*13044 FILLER_0_41_281
*13045 FILLER_0_41_293
*13046 FILLER_0_41_3
*13047 FILLER_0_41_305
*13048 FILLER_0_41_317
*13049 FILLER_0_41_329
*13050 FILLER_0_41_335
*13051 FILLER_0_41_337
*13052 FILLER_0_41_349
*13053 FILLER_0_41_361
*13054 FILLER_0_41_373
*13055 FILLER_0_41_385
*13056 FILLER_0_41_39
*13057 FILLER_0_41_391
*13058 FILLER_0_41_393
*13059 FILLER_0_41_405
*13060 FILLER_0_41_417
*13061 FILLER_0_41_429
*13062 FILLER_0_41_441
*13063 FILLER_0_41_447
*13064 FILLER_0_41_449
*13065 FILLER_0_41_461
*13066 FILLER_0_41_473
*13067 FILLER_0_41_485
*13068 FILLER_0_41_497
*13069 FILLER_0_41_503
*13070 FILLER_0_41_505
*13071 FILLER_0_41_51
*13072 FILLER_0_41_517
*13073 FILLER_0_41_529
*13074 FILLER_0_41_541
*13075 FILLER_0_41_55
*13076 FILLER_0_41_553
*13077 FILLER_0_41_559
*13078 FILLER_0_41_561
*13079 FILLER_0_41_57
*13080 FILLER_0_41_573
*13081 FILLER_0_41_585
*13082 FILLER_0_41_597
*13083 FILLER_0_41_609
*13084 FILLER_0_41_615
*13085 FILLER_0_41_617
*13086 FILLER_0_41_629
*13087 FILLER_0_41_641
*13088 FILLER_0_41_653
*13089 FILLER_0_41_665
*13090 FILLER_0_41_671
*13091 FILLER_0_41_673
*13092 FILLER_0_41_685
*13093 FILLER_0_41_69
*13094 FILLER_0_41_697
*13095 FILLER_0_41_709
*13096 FILLER_0_41_721
*13097 FILLER_0_41_727
*13098 FILLER_0_41_729
*13099 FILLER_0_41_741
*13100 FILLER_0_41_753
*13101 FILLER_0_41_765
*13102 FILLER_0_41_777
*13103 FILLER_0_41_783
*13104 FILLER_0_41_785
*13105 FILLER_0_41_797
*13106 FILLER_0_41_809
*13107 FILLER_0_41_81
*13108 FILLER_0_41_821
*13109 FILLER_0_41_833
*13110 FILLER_0_41_839
*13111 FILLER_0_41_841
*13112 FILLER_0_41_853
*13113 FILLER_0_41_865
*13114 FILLER_0_41_877
*13115 FILLER_0_41_889
*13116 FILLER_0_41_895
*13117 FILLER_0_41_897
*13118 FILLER_0_41_909
*13119 FILLER_0_41_921
*13120 FILLER_0_41_93
*13121 FILLER_0_41_933
*13122 FILLER_0_41_945
*13123 FILLER_0_41_951
*13124 FILLER_0_41_953
*13125 FILLER_0_41_965
*13126 FILLER_0_41_977
*13127 FILLER_0_41_989
*13128 FILLER_0_42_1005
*13129 FILLER_0_42_1017
*13130 FILLER_0_42_1029
*13131 FILLER_0_42_1035
*13132 FILLER_0_42_1037
*13133 FILLER_0_42_1049
*13134 FILLER_0_42_1057
*13135 FILLER_0_42_109
*13136 FILLER_0_42_121
*13137 FILLER_0_42_133
*13138 FILLER_0_42_139
*13139 FILLER_0_42_141
*13140 FILLER_0_42_15
*13141 FILLER_0_42_153
*13142 FILLER_0_42_165
*13143 FILLER_0_42_177
*13144 FILLER_0_42_189
*13145 FILLER_0_42_195
*13146 FILLER_0_42_197
*13147 FILLER_0_42_209
*13148 FILLER_0_42_221
*13149 FILLER_0_42_233
*13150 FILLER_0_42_245
*13151 FILLER_0_42_251
*13152 FILLER_0_42_253
*13153 FILLER_0_42_265
*13154 FILLER_0_42_27
*13155 FILLER_0_42_277
*13156 FILLER_0_42_289
*13157 FILLER_0_42_29
*13158 FILLER_0_42_3
*13159 FILLER_0_42_301
*13160 FILLER_0_42_307
*13161 FILLER_0_42_309
*13162 FILLER_0_42_321
*13163 FILLER_0_42_333
*13164 FILLER_0_42_345
*13165 FILLER_0_42_357
*13166 FILLER_0_42_363
*13167 FILLER_0_42_365
*13168 FILLER_0_42_377
*13169 FILLER_0_42_389
*13170 FILLER_0_42_401
*13171 FILLER_0_42_41
*13172 FILLER_0_42_413
*13173 FILLER_0_42_419
*13174 FILLER_0_42_421
*13175 FILLER_0_42_433
*13176 FILLER_0_42_445
*13177 FILLER_0_42_457
*13178 FILLER_0_42_469
*13179 FILLER_0_42_475
*13180 FILLER_0_42_477
*13181 FILLER_0_42_489
*13182 FILLER_0_42_501
*13183 FILLER_0_42_513
*13184 FILLER_0_42_525
*13185 FILLER_0_42_53
*13186 FILLER_0_42_531
*13187 FILLER_0_42_533
*13188 FILLER_0_42_545
*13189 FILLER_0_42_557
*13190 FILLER_0_42_569
*13191 FILLER_0_42_581
*13192 FILLER_0_42_587
*13193 FILLER_0_42_589
*13194 FILLER_0_42_601
*13195 FILLER_0_42_613
*13196 FILLER_0_42_625
*13197 FILLER_0_42_637
*13198 FILLER_0_42_643
*13199 FILLER_0_42_645
*13200 FILLER_0_42_65
*13201 FILLER_0_42_657
*13202 FILLER_0_42_669
*13203 FILLER_0_42_681
*13204 FILLER_0_42_693
*13205 FILLER_0_42_699
*13206 FILLER_0_42_701
*13207 FILLER_0_42_713
*13208 FILLER_0_42_725
*13209 FILLER_0_42_737
*13210 FILLER_0_42_749
*13211 FILLER_0_42_755
*13212 FILLER_0_42_757
*13213 FILLER_0_42_769
*13214 FILLER_0_42_77
*13215 FILLER_0_42_781
*13216 FILLER_0_42_793
*13217 FILLER_0_42_805
*13218 FILLER_0_42_811
*13219 FILLER_0_42_813
*13220 FILLER_0_42_825
*13221 FILLER_0_42_83
*13222 FILLER_0_42_837
*13223 FILLER_0_42_849
*13224 FILLER_0_42_85
*13225 FILLER_0_42_861
*13226 FILLER_0_42_867
*13227 FILLER_0_42_869
*13228 FILLER_0_42_881
*13229 FILLER_0_42_893
*13230 FILLER_0_42_905
*13231 FILLER_0_42_917
*13232 FILLER_0_42_923
*13233 FILLER_0_42_925
*13234 FILLER_0_42_937
*13235 FILLER_0_42_949
*13236 FILLER_0_42_961
*13237 FILLER_0_42_97
*13238 FILLER_0_42_973
*13239 FILLER_0_42_979
*13240 FILLER_0_42_981
*13241 FILLER_0_42_993
*13242 FILLER_0_43_1001
*13243 FILLER_0_43_1007
*13244 FILLER_0_43_1009
*13245 FILLER_0_43_1021
*13246 FILLER_0_43_1033
*13247 FILLER_0_43_1045
*13248 FILLER_0_43_105
*13249 FILLER_0_43_1057
*13250 FILLER_0_43_111
*13251 FILLER_0_43_113
*13252 FILLER_0_43_125
*13253 FILLER_0_43_137
*13254 FILLER_0_43_149
*13255 FILLER_0_43_15
*13256 FILLER_0_43_161
*13257 FILLER_0_43_167
*13258 FILLER_0_43_169
*13259 FILLER_0_43_181
*13260 FILLER_0_43_193
*13261 FILLER_0_43_205
*13262 FILLER_0_43_217
*13263 FILLER_0_43_223
*13264 FILLER_0_43_225
*13265 FILLER_0_43_237
*13266 FILLER_0_43_249
*13267 FILLER_0_43_261
*13268 FILLER_0_43_27
*13269 FILLER_0_43_273
*13270 FILLER_0_43_279
*13271 FILLER_0_43_281
*13272 FILLER_0_43_293
*13273 FILLER_0_43_3
*13274 FILLER_0_43_305
*13275 FILLER_0_43_317
*13276 FILLER_0_43_329
*13277 FILLER_0_43_335
*13278 FILLER_0_43_337
*13279 FILLER_0_43_349
*13280 FILLER_0_43_361
*13281 FILLER_0_43_373
*13282 FILLER_0_43_385
*13283 FILLER_0_43_39
*13284 FILLER_0_43_391
*13285 FILLER_0_43_393
*13286 FILLER_0_43_405
*13287 FILLER_0_43_417
*13288 FILLER_0_43_429
*13289 FILLER_0_43_441
*13290 FILLER_0_43_447
*13291 FILLER_0_43_449
*13292 FILLER_0_43_461
*13293 FILLER_0_43_473
*13294 FILLER_0_43_485
*13295 FILLER_0_43_497
*13296 FILLER_0_43_503
*13297 FILLER_0_43_505
*13298 FILLER_0_43_51
*13299 FILLER_0_43_517
*13300 FILLER_0_43_529
*13301 FILLER_0_43_541
*13302 FILLER_0_43_55
*13303 FILLER_0_43_553
*13304 FILLER_0_43_559
*13305 FILLER_0_43_561
*13306 FILLER_0_43_57
*13307 FILLER_0_43_573
*13308 FILLER_0_43_585
*13309 FILLER_0_43_597
*13310 FILLER_0_43_609
*13311 FILLER_0_43_615
*13312 FILLER_0_43_617
*13313 FILLER_0_43_629
*13314 FILLER_0_43_641
*13315 FILLER_0_43_653
*13316 FILLER_0_43_665
*13317 FILLER_0_43_671
*13318 FILLER_0_43_673
*13319 FILLER_0_43_685
*13320 FILLER_0_43_69
*13321 FILLER_0_43_697
*13322 FILLER_0_43_709
*13323 FILLER_0_43_721
*13324 FILLER_0_43_727
*13325 FILLER_0_43_729
*13326 FILLER_0_43_741
*13327 FILLER_0_43_753
*13328 FILLER_0_43_765
*13329 FILLER_0_43_777
*13330 FILLER_0_43_783
*13331 FILLER_0_43_785
*13332 FILLER_0_43_797
*13333 FILLER_0_43_809
*13334 FILLER_0_43_81
*13335 FILLER_0_43_821
*13336 FILLER_0_43_833
*13337 FILLER_0_43_839
*13338 FILLER_0_43_841
*13339 FILLER_0_43_853
*13340 FILLER_0_43_865
*13341 FILLER_0_43_877
*13342 FILLER_0_43_889
*13343 FILLER_0_43_895
*13344 FILLER_0_43_897
*13345 FILLER_0_43_909
*13346 FILLER_0_43_921
*13347 FILLER_0_43_93
*13348 FILLER_0_43_933
*13349 FILLER_0_43_945
*13350 FILLER_0_43_951
*13351 FILLER_0_43_953
*13352 FILLER_0_43_965
*13353 FILLER_0_43_977
*13354 FILLER_0_43_989
*13355 FILLER_0_44_1005
*13356 FILLER_0_44_1017
*13357 FILLER_0_44_1029
*13358 FILLER_0_44_1035
*13359 FILLER_0_44_1037
*13360 FILLER_0_44_1049
*13361 FILLER_0_44_1057
*13362 FILLER_0_44_109
*13363 FILLER_0_44_121
*13364 FILLER_0_44_133
*13365 FILLER_0_44_139
*13366 FILLER_0_44_141
*13367 FILLER_0_44_15
*13368 FILLER_0_44_153
*13369 FILLER_0_44_165
*13370 FILLER_0_44_177
*13371 FILLER_0_44_189
*13372 FILLER_0_44_195
*13373 FILLER_0_44_197
*13374 FILLER_0_44_209
*13375 FILLER_0_44_221
*13376 FILLER_0_44_233
*13377 FILLER_0_44_245
*13378 FILLER_0_44_251
*13379 FILLER_0_44_253
*13380 FILLER_0_44_265
*13381 FILLER_0_44_27
*13382 FILLER_0_44_277
*13383 FILLER_0_44_289
*13384 FILLER_0_44_29
*13385 FILLER_0_44_3
*13386 FILLER_0_44_301
*13387 FILLER_0_44_307
*13388 FILLER_0_44_309
*13389 FILLER_0_44_321
*13390 FILLER_0_44_333
*13391 FILLER_0_44_345
*13392 FILLER_0_44_357
*13393 FILLER_0_44_363
*13394 FILLER_0_44_365
*13395 FILLER_0_44_377
*13396 FILLER_0_44_389
*13397 FILLER_0_44_401
*13398 FILLER_0_44_41
*13399 FILLER_0_44_413
*13400 FILLER_0_44_419
*13401 FILLER_0_44_421
*13402 FILLER_0_44_433
*13403 FILLER_0_44_445
*13404 FILLER_0_44_457
*13405 FILLER_0_44_469
*13406 FILLER_0_44_475
*13407 FILLER_0_44_477
*13408 FILLER_0_44_489
*13409 FILLER_0_44_501
*13410 FILLER_0_44_513
*13411 FILLER_0_44_525
*13412 FILLER_0_44_53
*13413 FILLER_0_44_531
*13414 FILLER_0_44_533
*13415 FILLER_0_44_545
*13416 FILLER_0_44_557
*13417 FILLER_0_44_569
*13418 FILLER_0_44_581
*13419 FILLER_0_44_587
*13420 FILLER_0_44_589
*13421 FILLER_0_44_601
*13422 FILLER_0_44_613
*13423 FILLER_0_44_625
*13424 FILLER_0_44_637
*13425 FILLER_0_44_643
*13426 FILLER_0_44_645
*13427 FILLER_0_44_65
*13428 FILLER_0_44_657
*13429 FILLER_0_44_669
*13430 FILLER_0_44_681
*13431 FILLER_0_44_693
*13432 FILLER_0_44_699
*13433 FILLER_0_44_701
*13434 FILLER_0_44_713
*13435 FILLER_0_44_725
*13436 FILLER_0_44_737
*13437 FILLER_0_44_749
*13438 FILLER_0_44_755
*13439 FILLER_0_44_757
*13440 FILLER_0_44_769
*13441 FILLER_0_44_77
*13442 FILLER_0_44_781
*13443 FILLER_0_44_793
*13444 FILLER_0_44_805
*13445 FILLER_0_44_811
*13446 FILLER_0_44_813
*13447 FILLER_0_44_825
*13448 FILLER_0_44_83
*13449 FILLER_0_44_837
*13450 FILLER_0_44_849
*13451 FILLER_0_44_85
*13452 FILLER_0_44_861
*13453 FILLER_0_44_867
*13454 FILLER_0_44_869
*13455 FILLER_0_44_881
*13456 FILLER_0_44_893
*13457 FILLER_0_44_905
*13458 FILLER_0_44_917
*13459 FILLER_0_44_923
*13460 FILLER_0_44_925
*13461 FILLER_0_44_937
*13462 FILLER_0_44_949
*13463 FILLER_0_44_961
*13464 FILLER_0_44_97
*13465 FILLER_0_44_973
*13466 FILLER_0_44_979
*13467 FILLER_0_44_981
*13468 FILLER_0_44_993
*13469 FILLER_0_45_1001
*13470 FILLER_0_45_1007
*13471 FILLER_0_45_1009
*13472 FILLER_0_45_1021
*13473 FILLER_0_45_1033
*13474 FILLER_0_45_1045
*13475 FILLER_0_45_105
*13476 FILLER_0_45_1057
*13477 FILLER_0_45_111
*13478 FILLER_0_45_113
*13479 FILLER_0_45_125
*13480 FILLER_0_45_137
*13481 FILLER_0_45_149
*13482 FILLER_0_45_15
*13483 FILLER_0_45_161
*13484 FILLER_0_45_167
*13485 FILLER_0_45_169
*13486 FILLER_0_45_181
*13487 FILLER_0_45_193
*13488 FILLER_0_45_205
*13489 FILLER_0_45_217
*13490 FILLER_0_45_223
*13491 FILLER_0_45_225
*13492 FILLER_0_45_237
*13493 FILLER_0_45_249
*13494 FILLER_0_45_261
*13495 FILLER_0_45_27
*13496 FILLER_0_45_273
*13497 FILLER_0_45_279
*13498 FILLER_0_45_281
*13499 FILLER_0_45_293
*13500 FILLER_0_45_3
*13501 FILLER_0_45_305
*13502 FILLER_0_45_317
*13503 FILLER_0_45_329
*13504 FILLER_0_45_335
*13505 FILLER_0_45_337
*13506 FILLER_0_45_349
*13507 FILLER_0_45_361
*13508 FILLER_0_45_373
*13509 FILLER_0_45_385
*13510 FILLER_0_45_39
*13511 FILLER_0_45_391
*13512 FILLER_0_45_393
*13513 FILLER_0_45_405
*13514 FILLER_0_45_417
*13515 FILLER_0_45_429
*13516 FILLER_0_45_441
*13517 FILLER_0_45_447
*13518 FILLER_0_45_449
*13519 FILLER_0_45_461
*13520 FILLER_0_45_473
*13521 FILLER_0_45_485
*13522 FILLER_0_45_497
*13523 FILLER_0_45_503
*13524 FILLER_0_45_505
*13525 FILLER_0_45_51
*13526 FILLER_0_45_517
*13527 FILLER_0_45_529
*13528 FILLER_0_45_541
*13529 FILLER_0_45_55
*13530 FILLER_0_45_553
*13531 FILLER_0_45_559
*13532 FILLER_0_45_561
*13533 FILLER_0_45_57
*13534 FILLER_0_45_573
*13535 FILLER_0_45_585
*13536 FILLER_0_45_597
*13537 FILLER_0_45_609
*13538 FILLER_0_45_615
*13539 FILLER_0_45_617
*13540 FILLER_0_45_629
*13541 FILLER_0_45_641
*13542 FILLER_0_45_653
*13543 FILLER_0_45_665
*13544 FILLER_0_45_671
*13545 FILLER_0_45_673
*13546 FILLER_0_45_685
*13547 FILLER_0_45_69
*13548 FILLER_0_45_697
*13549 FILLER_0_45_709
*13550 FILLER_0_45_721
*13551 FILLER_0_45_727
*13552 FILLER_0_45_729
*13553 FILLER_0_45_741
*13554 FILLER_0_45_753
*13555 FILLER_0_45_765
*13556 FILLER_0_45_777
*13557 FILLER_0_45_783
*13558 FILLER_0_45_785
*13559 FILLER_0_45_797
*13560 FILLER_0_45_809
*13561 FILLER_0_45_81
*13562 FILLER_0_45_821
*13563 FILLER_0_45_833
*13564 FILLER_0_45_839
*13565 FILLER_0_45_841
*13566 FILLER_0_45_853
*13567 FILLER_0_45_865
*13568 FILLER_0_45_877
*13569 FILLER_0_45_889
*13570 FILLER_0_45_895
*13571 FILLER_0_45_897
*13572 FILLER_0_45_909
*13573 FILLER_0_45_921
*13574 FILLER_0_45_93
*13575 FILLER_0_45_933
*13576 FILLER_0_45_945
*13577 FILLER_0_45_951
*13578 FILLER_0_45_953
*13579 FILLER_0_45_965
*13580 FILLER_0_45_977
*13581 FILLER_0_45_989
*13582 FILLER_0_46_1005
*13583 FILLER_0_46_1017
*13584 FILLER_0_46_1029
*13585 FILLER_0_46_1035
*13586 FILLER_0_46_1037
*13587 FILLER_0_46_1049
*13588 FILLER_0_46_1057
*13589 FILLER_0_46_109
*13590 FILLER_0_46_121
*13591 FILLER_0_46_133
*13592 FILLER_0_46_139
*13593 FILLER_0_46_141
*13594 FILLER_0_46_15
*13595 FILLER_0_46_153
*13596 FILLER_0_46_165
*13597 FILLER_0_46_177
*13598 FILLER_0_46_189
*13599 FILLER_0_46_195
*13600 FILLER_0_46_197
*13601 FILLER_0_46_209
*13602 FILLER_0_46_221
*13603 FILLER_0_46_233
*13604 FILLER_0_46_245
*13605 FILLER_0_46_251
*13606 FILLER_0_46_253
*13607 FILLER_0_46_265
*13608 FILLER_0_46_27
*13609 FILLER_0_46_277
*13610 FILLER_0_46_289
*13611 FILLER_0_46_29
*13612 FILLER_0_46_3
*13613 FILLER_0_46_301
*13614 FILLER_0_46_307
*13615 FILLER_0_46_309
*13616 FILLER_0_46_321
*13617 FILLER_0_46_333
*13618 FILLER_0_46_345
*13619 FILLER_0_46_357
*13620 FILLER_0_46_363
*13621 FILLER_0_46_365
*13622 FILLER_0_46_377
*13623 FILLER_0_46_389
*13624 FILLER_0_46_401
*13625 FILLER_0_46_41
*13626 FILLER_0_46_413
*13627 FILLER_0_46_419
*13628 FILLER_0_46_421
*13629 FILLER_0_46_433
*13630 FILLER_0_46_445
*13631 FILLER_0_46_457
*13632 FILLER_0_46_469
*13633 FILLER_0_46_475
*13634 FILLER_0_46_477
*13635 FILLER_0_46_489
*13636 FILLER_0_46_501
*13637 FILLER_0_46_513
*13638 FILLER_0_46_525
*13639 FILLER_0_46_53
*13640 FILLER_0_46_531
*13641 FILLER_0_46_533
*13642 FILLER_0_46_545
*13643 FILLER_0_46_557
*13644 FILLER_0_46_569
*13645 FILLER_0_46_581
*13646 FILLER_0_46_587
*13647 FILLER_0_46_589
*13648 FILLER_0_46_601
*13649 FILLER_0_46_613
*13650 FILLER_0_46_625
*13651 FILLER_0_46_637
*13652 FILLER_0_46_643
*13653 FILLER_0_46_645
*13654 FILLER_0_46_65
*13655 FILLER_0_46_657
*13656 FILLER_0_46_669
*13657 FILLER_0_46_681
*13658 FILLER_0_46_693
*13659 FILLER_0_46_699
*13660 FILLER_0_46_701
*13661 FILLER_0_46_713
*13662 FILLER_0_46_725
*13663 FILLER_0_46_737
*13664 FILLER_0_46_749
*13665 FILLER_0_46_755
*13666 FILLER_0_46_757
*13667 FILLER_0_46_769
*13668 FILLER_0_46_77
*13669 FILLER_0_46_781
*13670 FILLER_0_46_793
*13671 FILLER_0_46_805
*13672 FILLER_0_46_811
*13673 FILLER_0_46_813
*13674 FILLER_0_46_825
*13675 FILLER_0_46_83
*13676 FILLER_0_46_837
*13677 FILLER_0_46_849
*13678 FILLER_0_46_85
*13679 FILLER_0_46_861
*13680 FILLER_0_46_867
*13681 FILLER_0_46_869
*13682 FILLER_0_46_881
*13683 FILLER_0_46_893
*13684 FILLER_0_46_905
*13685 FILLER_0_46_917
*13686 FILLER_0_46_923
*13687 FILLER_0_46_925
*13688 FILLER_0_46_937
*13689 FILLER_0_46_949
*13690 FILLER_0_46_961
*13691 FILLER_0_46_97
*13692 FILLER_0_46_973
*13693 FILLER_0_46_979
*13694 FILLER_0_46_981
*13695 FILLER_0_46_993
*13696 FILLER_0_47_1001
*13697 FILLER_0_47_1007
*13698 FILLER_0_47_1009
*13699 FILLER_0_47_1021
*13700 FILLER_0_47_1033
*13701 FILLER_0_47_1045
*13702 FILLER_0_47_105
*13703 FILLER_0_47_1057
*13704 FILLER_0_47_111
*13705 FILLER_0_47_113
*13706 FILLER_0_47_125
*13707 FILLER_0_47_137
*13708 FILLER_0_47_149
*13709 FILLER_0_47_15
*13710 FILLER_0_47_161
*13711 FILLER_0_47_167
*13712 FILLER_0_47_169
*13713 FILLER_0_47_181
*13714 FILLER_0_47_193
*13715 FILLER_0_47_205
*13716 FILLER_0_47_217
*13717 FILLER_0_47_223
*13718 FILLER_0_47_225
*13719 FILLER_0_47_237
*13720 FILLER_0_47_249
*13721 FILLER_0_47_261
*13722 FILLER_0_47_27
*13723 FILLER_0_47_273
*13724 FILLER_0_47_279
*13725 FILLER_0_47_281
*13726 FILLER_0_47_293
*13727 FILLER_0_47_3
*13728 FILLER_0_47_305
*13729 FILLER_0_47_317
*13730 FILLER_0_47_329
*13731 FILLER_0_47_335
*13732 FILLER_0_47_337
*13733 FILLER_0_47_349
*13734 FILLER_0_47_361
*13735 FILLER_0_47_373
*13736 FILLER_0_47_385
*13737 FILLER_0_47_39
*13738 FILLER_0_47_391
*13739 FILLER_0_47_393
*13740 FILLER_0_47_405
*13741 FILLER_0_47_417
*13742 FILLER_0_47_429
*13743 FILLER_0_47_441
*13744 FILLER_0_47_447
*13745 FILLER_0_47_449
*13746 FILLER_0_47_461
*13747 FILLER_0_47_473
*13748 FILLER_0_47_485
*13749 FILLER_0_47_497
*13750 FILLER_0_47_503
*13751 FILLER_0_47_505
*13752 FILLER_0_47_51
*13753 FILLER_0_47_517
*13754 FILLER_0_47_529
*13755 FILLER_0_47_541
*13756 FILLER_0_47_55
*13757 FILLER_0_47_553
*13758 FILLER_0_47_559
*13759 FILLER_0_47_561
*13760 FILLER_0_47_57
*13761 FILLER_0_47_573
*13762 FILLER_0_47_585
*13763 FILLER_0_47_597
*13764 FILLER_0_47_609
*13765 FILLER_0_47_615
*13766 FILLER_0_47_617
*13767 FILLER_0_47_629
*13768 FILLER_0_47_641
*13769 FILLER_0_47_653
*13770 FILLER_0_47_665
*13771 FILLER_0_47_671
*13772 FILLER_0_47_673
*13773 FILLER_0_47_685
*13774 FILLER_0_47_69
*13775 FILLER_0_47_697
*13776 FILLER_0_47_709
*13777 FILLER_0_47_721
*13778 FILLER_0_47_727
*13779 FILLER_0_47_729
*13780 FILLER_0_47_741
*13781 FILLER_0_47_753
*13782 FILLER_0_47_765
*13783 FILLER_0_47_777
*13784 FILLER_0_47_783
*13785 FILLER_0_47_785
*13786 FILLER_0_47_797
*13787 FILLER_0_47_809
*13788 FILLER_0_47_81
*13789 FILLER_0_47_821
*13790 FILLER_0_47_833
*13791 FILLER_0_47_839
*13792 FILLER_0_47_841
*13793 FILLER_0_47_853
*13794 FILLER_0_47_865
*13795 FILLER_0_47_877
*13796 FILLER_0_47_889
*13797 FILLER_0_47_895
*13798 FILLER_0_47_897
*13799 FILLER_0_47_909
*13800 FILLER_0_47_921
*13801 FILLER_0_47_93
*13802 FILLER_0_47_933
*13803 FILLER_0_47_945
*13804 FILLER_0_47_951
*13805 FILLER_0_47_953
*13806 FILLER_0_47_965
*13807 FILLER_0_47_977
*13808 FILLER_0_47_989
*13809 FILLER_0_48_1005
*13810 FILLER_0_48_1017
*13811 FILLER_0_48_1029
*13812 FILLER_0_48_1035
*13813 FILLER_0_48_1037
*13814 FILLER_0_48_1049
*13815 FILLER_0_48_1057
*13816 FILLER_0_48_109
*13817 FILLER_0_48_121
*13818 FILLER_0_48_133
*13819 FILLER_0_48_139
*13820 FILLER_0_48_141
*13821 FILLER_0_48_153
*13822 FILLER_0_48_165
*13823 FILLER_0_48_177
*13824 FILLER_0_48_189
*13825 FILLER_0_48_19
*13826 FILLER_0_48_195
*13827 FILLER_0_48_197
*13828 FILLER_0_48_209
*13829 FILLER_0_48_221
*13830 FILLER_0_48_233
*13831 FILLER_0_48_245
*13832 FILLER_0_48_251
*13833 FILLER_0_48_253
*13834 FILLER_0_48_265
*13835 FILLER_0_48_27
*13836 FILLER_0_48_277
*13837 FILLER_0_48_289
*13838 FILLER_0_48_29
*13839 FILLER_0_48_301
*13840 FILLER_0_48_307
*13841 FILLER_0_48_309
*13842 FILLER_0_48_321
*13843 FILLER_0_48_333
*13844 FILLER_0_48_345
*13845 FILLER_0_48_357
*13846 FILLER_0_48_363
*13847 FILLER_0_48_365
*13848 FILLER_0_48_377
*13849 FILLER_0_48_389
*13850 FILLER_0_48_401
*13851 FILLER_0_48_41
*13852 FILLER_0_48_413
*13853 FILLER_0_48_419
*13854 FILLER_0_48_421
*13855 FILLER_0_48_433
*13856 FILLER_0_48_445
*13857 FILLER_0_48_457
*13858 FILLER_0_48_469
*13859 FILLER_0_48_475
*13860 FILLER_0_48_477
*13861 FILLER_0_48_489
*13862 FILLER_0_48_501
*13863 FILLER_0_48_513
*13864 FILLER_0_48_525
*13865 FILLER_0_48_53
*13866 FILLER_0_48_531
*13867 FILLER_0_48_533
*13868 FILLER_0_48_545
*13869 FILLER_0_48_557
*13870 FILLER_0_48_569
*13871 FILLER_0_48_581
*13872 FILLER_0_48_587
*13873 FILLER_0_48_589
*13874 FILLER_0_48_601
*13875 FILLER_0_48_613
*13876 FILLER_0_48_625
*13877 FILLER_0_48_637
*13878 FILLER_0_48_643
*13879 FILLER_0_48_645
*13880 FILLER_0_48_65
*13881 FILLER_0_48_657
*13882 FILLER_0_48_669
*13883 FILLER_0_48_681
*13884 FILLER_0_48_693
*13885 FILLER_0_48_699
*13886 FILLER_0_48_7
*13887 FILLER_0_48_701
*13888 FILLER_0_48_713
*13889 FILLER_0_48_725
*13890 FILLER_0_48_737
*13891 FILLER_0_48_749
*13892 FILLER_0_48_755
*13893 FILLER_0_48_757
*13894 FILLER_0_48_769
*13895 FILLER_0_48_77
*13896 FILLER_0_48_781
*13897 FILLER_0_48_793
*13898 FILLER_0_48_805
*13899 FILLER_0_48_811
*13900 FILLER_0_48_813
*13901 FILLER_0_48_825
*13902 FILLER_0_48_83
*13903 FILLER_0_48_837
*13904 FILLER_0_48_849
*13905 FILLER_0_48_85
*13906 FILLER_0_48_861
*13907 FILLER_0_48_867
*13908 FILLER_0_48_869
*13909 FILLER_0_48_881
*13910 FILLER_0_48_893
*13911 FILLER_0_48_905
*13912 FILLER_0_48_917
*13913 FILLER_0_48_923
*13914 FILLER_0_48_925
*13915 FILLER_0_48_937
*13916 FILLER_0_48_949
*13917 FILLER_0_48_961
*13918 FILLER_0_48_97
*13919 FILLER_0_48_973
*13920 FILLER_0_48_979
*13921 FILLER_0_48_981
*13922 FILLER_0_48_993
*13923 FILLER_0_49_1001
*13924 FILLER_0_49_1007
*13925 FILLER_0_49_1009
*13926 FILLER_0_49_1021
*13927 FILLER_0_49_1033
*13928 FILLER_0_49_1045
*13929 FILLER_0_49_105
*13930 FILLER_0_49_1057
*13931 FILLER_0_49_111
*13932 FILLER_0_49_113
*13933 FILLER_0_49_125
*13934 FILLER_0_49_137
*13935 FILLER_0_49_149
*13936 FILLER_0_49_15
*13937 FILLER_0_49_161
*13938 FILLER_0_49_167
*13939 FILLER_0_49_169
*13940 FILLER_0_49_181
*13941 FILLER_0_49_193
*13942 FILLER_0_49_205
*13943 FILLER_0_49_217
*13944 FILLER_0_49_223
*13945 FILLER_0_49_225
*13946 FILLER_0_49_237
*13947 FILLER_0_49_249
*13948 FILLER_0_49_261
*13949 FILLER_0_49_27
*13950 FILLER_0_49_273
*13951 FILLER_0_49_279
*13952 FILLER_0_49_281
*13953 FILLER_0_49_293
*13954 FILLER_0_49_3
*13955 FILLER_0_49_305
*13956 FILLER_0_49_317
*13957 FILLER_0_49_329
*13958 FILLER_0_49_335
*13959 FILLER_0_49_337
*13960 FILLER_0_49_349
*13961 FILLER_0_49_361
*13962 FILLER_0_49_373
*13963 FILLER_0_49_385
*13964 FILLER_0_49_39
*13965 FILLER_0_49_391
*13966 FILLER_0_49_393
*13967 FILLER_0_49_405
*13968 FILLER_0_49_417
*13969 FILLER_0_49_429
*13970 FILLER_0_49_441
*13971 FILLER_0_49_447
*13972 FILLER_0_49_449
*13973 FILLER_0_49_461
*13974 FILLER_0_49_473
*13975 FILLER_0_49_485
*13976 FILLER_0_49_497
*13977 FILLER_0_49_503
*13978 FILLER_0_49_505
*13979 FILLER_0_49_51
*13980 FILLER_0_49_517
*13981 FILLER_0_49_529
*13982 FILLER_0_49_541
*13983 FILLER_0_49_55
*13984 FILLER_0_49_553
*13985 FILLER_0_49_559
*13986 FILLER_0_49_561
*13987 FILLER_0_49_57
*13988 FILLER_0_49_573
*13989 FILLER_0_49_585
*13990 FILLER_0_49_597
*13991 FILLER_0_49_609
*13992 FILLER_0_49_615
*13993 FILLER_0_49_617
*13994 FILLER_0_49_629
*13995 FILLER_0_49_641
*13996 FILLER_0_49_653
*13997 FILLER_0_49_665
*13998 FILLER_0_49_671
*13999 FILLER_0_49_673
*14000 FILLER_0_49_685
*14001 FILLER_0_49_69
*14002 FILLER_0_49_697
*14003 FILLER_0_49_709
*14004 FILLER_0_49_721
*14005 FILLER_0_49_727
*14006 FILLER_0_49_729
*14007 FILLER_0_49_741
*14008 FILLER_0_49_753
*14009 FILLER_0_49_765
*14010 FILLER_0_49_777
*14011 FILLER_0_49_783
*14012 FILLER_0_49_785
*14013 FILLER_0_49_797
*14014 FILLER_0_49_809
*14015 FILLER_0_49_81
*14016 FILLER_0_49_821
*14017 FILLER_0_49_833
*14018 FILLER_0_49_839
*14019 FILLER_0_49_841
*14020 FILLER_0_49_853
*14021 FILLER_0_49_865
*14022 FILLER_0_49_877
*14023 FILLER_0_49_889
*14024 FILLER_0_49_895
*14025 FILLER_0_49_897
*14026 FILLER_0_49_909
*14027 FILLER_0_49_921
*14028 FILLER_0_49_93
*14029 FILLER_0_49_933
*14030 FILLER_0_49_945
*14031 FILLER_0_49_951
*14032 FILLER_0_49_953
*14033 FILLER_0_49_965
*14034 FILLER_0_49_977
*14035 FILLER_0_49_989
*14036 FILLER_0_4_1005
*14037 FILLER_0_4_1017
*14038 FILLER_0_4_1029
*14039 FILLER_0_4_1035
*14040 FILLER_0_4_1037
*14041 FILLER_0_4_1049
*14042 FILLER_0_4_1057
*14043 FILLER_0_4_109
*14044 FILLER_0_4_121
*14045 FILLER_0_4_133
*14046 FILLER_0_4_139
*14047 FILLER_0_4_141
*14048 FILLER_0_4_15
*14049 FILLER_0_4_153
*14050 FILLER_0_4_165
*14051 FILLER_0_4_177
*14052 FILLER_0_4_189
*14053 FILLER_0_4_195
*14054 FILLER_0_4_197
*14055 FILLER_0_4_209
*14056 FILLER_0_4_221
*14057 FILLER_0_4_233
*14058 FILLER_0_4_245
*14059 FILLER_0_4_251
*14060 FILLER_0_4_253
*14061 FILLER_0_4_265
*14062 FILLER_0_4_27
*14063 FILLER_0_4_277
*14064 FILLER_0_4_289
*14065 FILLER_0_4_29
*14066 FILLER_0_4_3
*14067 FILLER_0_4_301
*14068 FILLER_0_4_307
*14069 FILLER_0_4_309
*14070 FILLER_0_4_321
*14071 FILLER_0_4_333
*14072 FILLER_0_4_345
*14073 FILLER_0_4_357
*14074 FILLER_0_4_363
*14075 FILLER_0_4_365
*14076 FILLER_0_4_377
*14077 FILLER_0_4_389
*14078 FILLER_0_4_401
*14079 FILLER_0_4_41
*14080 FILLER_0_4_413
*14081 FILLER_0_4_419
*14082 FILLER_0_4_421
*14083 FILLER_0_4_433
*14084 FILLER_0_4_445
*14085 FILLER_0_4_457
*14086 FILLER_0_4_469
*14087 FILLER_0_4_475
*14088 FILLER_0_4_477
*14089 FILLER_0_4_489
*14090 FILLER_0_4_501
*14091 FILLER_0_4_513
*14092 FILLER_0_4_525
*14093 FILLER_0_4_53
*14094 FILLER_0_4_531
*14095 FILLER_0_4_533
*14096 FILLER_0_4_545
*14097 FILLER_0_4_557
*14098 FILLER_0_4_569
*14099 FILLER_0_4_581
*14100 FILLER_0_4_587
*14101 FILLER_0_4_589
*14102 FILLER_0_4_601
*14103 FILLER_0_4_613
*14104 FILLER_0_4_625
*14105 FILLER_0_4_637
*14106 FILLER_0_4_643
*14107 FILLER_0_4_645
*14108 FILLER_0_4_65
*14109 FILLER_0_4_657
*14110 FILLER_0_4_669
*14111 FILLER_0_4_681
*14112 FILLER_0_4_693
*14113 FILLER_0_4_699
*14114 FILLER_0_4_701
*14115 FILLER_0_4_713
*14116 FILLER_0_4_725
*14117 FILLER_0_4_737
*14118 FILLER_0_4_749
*14119 FILLER_0_4_755
*14120 FILLER_0_4_757
*14121 FILLER_0_4_769
*14122 FILLER_0_4_77
*14123 FILLER_0_4_781
*14124 FILLER_0_4_793
*14125 FILLER_0_4_805
*14126 FILLER_0_4_811
*14127 FILLER_0_4_813
*14128 FILLER_0_4_825
*14129 FILLER_0_4_83
*14130 FILLER_0_4_837
*14131 FILLER_0_4_849
*14132 FILLER_0_4_85
*14133 FILLER_0_4_861
*14134 FILLER_0_4_867
*14135 FILLER_0_4_869
*14136 FILLER_0_4_881
*14137 FILLER_0_4_893
*14138 FILLER_0_4_905
*14139 FILLER_0_4_917
*14140 FILLER_0_4_923
*14141 FILLER_0_4_925
*14142 FILLER_0_4_937
*14143 FILLER_0_4_949
*14144 FILLER_0_4_961
*14145 FILLER_0_4_97
*14146 FILLER_0_4_973
*14147 FILLER_0_4_979
*14148 FILLER_0_4_981
*14149 FILLER_0_4_993
*14150 FILLER_0_50_1005
*14151 FILLER_0_50_1017
*14152 FILLER_0_50_1029
*14153 FILLER_0_50_1035
*14154 FILLER_0_50_1037
*14155 FILLER_0_50_1049
*14156 FILLER_0_50_1057
*14157 FILLER_0_50_109
*14158 FILLER_0_50_121
*14159 FILLER_0_50_133
*14160 FILLER_0_50_139
*14161 FILLER_0_50_141
*14162 FILLER_0_50_15
*14163 FILLER_0_50_153
*14164 FILLER_0_50_165
*14165 FILLER_0_50_177
*14166 FILLER_0_50_189
*14167 FILLER_0_50_195
*14168 FILLER_0_50_197
*14169 FILLER_0_50_209
*14170 FILLER_0_50_221
*14171 FILLER_0_50_233
*14172 FILLER_0_50_245
*14173 FILLER_0_50_251
*14174 FILLER_0_50_253
*14175 FILLER_0_50_265
*14176 FILLER_0_50_27
*14177 FILLER_0_50_277
*14178 FILLER_0_50_289
*14179 FILLER_0_50_29
*14180 FILLER_0_50_3
*14181 FILLER_0_50_301
*14182 FILLER_0_50_307
*14183 FILLER_0_50_309
*14184 FILLER_0_50_321
*14185 FILLER_0_50_333
*14186 FILLER_0_50_345
*14187 FILLER_0_50_357
*14188 FILLER_0_50_363
*14189 FILLER_0_50_365
*14190 FILLER_0_50_377
*14191 FILLER_0_50_389
*14192 FILLER_0_50_401
*14193 FILLER_0_50_41
*14194 FILLER_0_50_413
*14195 FILLER_0_50_419
*14196 FILLER_0_50_421
*14197 FILLER_0_50_433
*14198 FILLER_0_50_445
*14199 FILLER_0_50_457
*14200 FILLER_0_50_469
*14201 FILLER_0_50_475
*14202 FILLER_0_50_477
*14203 FILLER_0_50_489
*14204 FILLER_0_50_501
*14205 FILLER_0_50_513
*14206 FILLER_0_50_525
*14207 FILLER_0_50_53
*14208 FILLER_0_50_531
*14209 FILLER_0_50_533
*14210 FILLER_0_50_545
*14211 FILLER_0_50_557
*14212 FILLER_0_50_569
*14213 FILLER_0_50_581
*14214 FILLER_0_50_587
*14215 FILLER_0_50_589
*14216 FILLER_0_50_601
*14217 FILLER_0_50_613
*14218 FILLER_0_50_625
*14219 FILLER_0_50_637
*14220 FILLER_0_50_643
*14221 FILLER_0_50_645
*14222 FILLER_0_50_65
*14223 FILLER_0_50_657
*14224 FILLER_0_50_669
*14225 FILLER_0_50_681
*14226 FILLER_0_50_693
*14227 FILLER_0_50_699
*14228 FILLER_0_50_701
*14229 FILLER_0_50_713
*14230 FILLER_0_50_725
*14231 FILLER_0_50_737
*14232 FILLER_0_50_749
*14233 FILLER_0_50_755
*14234 FILLER_0_50_757
*14235 FILLER_0_50_769
*14236 FILLER_0_50_77
*14237 FILLER_0_50_781
*14238 FILLER_0_50_793
*14239 FILLER_0_50_805
*14240 FILLER_0_50_811
*14241 FILLER_0_50_813
*14242 FILLER_0_50_825
*14243 FILLER_0_50_83
*14244 FILLER_0_50_837
*14245 FILLER_0_50_849
*14246 FILLER_0_50_85
*14247 FILLER_0_50_861
*14248 FILLER_0_50_867
*14249 FILLER_0_50_869
*14250 FILLER_0_50_881
*14251 FILLER_0_50_893
*14252 FILLER_0_50_905
*14253 FILLER_0_50_917
*14254 FILLER_0_50_923
*14255 FILLER_0_50_925
*14256 FILLER_0_50_937
*14257 FILLER_0_50_949
*14258 FILLER_0_50_961
*14259 FILLER_0_50_97
*14260 FILLER_0_50_973
*14261 FILLER_0_50_979
*14262 FILLER_0_50_981
*14263 FILLER_0_50_993
*14264 FILLER_0_51_1001
*14265 FILLER_0_51_1007
*14266 FILLER_0_51_1009
*14267 FILLER_0_51_1021
*14268 FILLER_0_51_1033
*14269 FILLER_0_51_1045
*14270 FILLER_0_51_105
*14271 FILLER_0_51_1057
*14272 FILLER_0_51_111
*14273 FILLER_0_51_113
*14274 FILLER_0_51_125
*14275 FILLER_0_51_137
*14276 FILLER_0_51_149
*14277 FILLER_0_51_15
*14278 FILLER_0_51_161
*14279 FILLER_0_51_167
*14280 FILLER_0_51_169
*14281 FILLER_0_51_181
*14282 FILLER_0_51_193
*14283 FILLER_0_51_205
*14284 FILLER_0_51_217
*14285 FILLER_0_51_223
*14286 FILLER_0_51_225
*14287 FILLER_0_51_237
*14288 FILLER_0_51_249
*14289 FILLER_0_51_261
*14290 FILLER_0_51_27
*14291 FILLER_0_51_273
*14292 FILLER_0_51_279
*14293 FILLER_0_51_281
*14294 FILLER_0_51_293
*14295 FILLER_0_51_3
*14296 FILLER_0_51_305
*14297 FILLER_0_51_317
*14298 FILLER_0_51_329
*14299 FILLER_0_51_335
*14300 FILLER_0_51_337
*14301 FILLER_0_51_349
*14302 FILLER_0_51_361
*14303 FILLER_0_51_373
*14304 FILLER_0_51_385
*14305 FILLER_0_51_39
*14306 FILLER_0_51_391
*14307 FILLER_0_51_393
*14308 FILLER_0_51_405
*14309 FILLER_0_51_417
*14310 FILLER_0_51_429
*14311 FILLER_0_51_441
*14312 FILLER_0_51_447
*14313 FILLER_0_51_449
*14314 FILLER_0_51_461
*14315 FILLER_0_51_473
*14316 FILLER_0_51_485
*14317 FILLER_0_51_497
*14318 FILLER_0_51_503
*14319 FILLER_0_51_505
*14320 FILLER_0_51_51
*14321 FILLER_0_51_517
*14322 FILLER_0_51_529
*14323 FILLER_0_51_541
*14324 FILLER_0_51_55
*14325 FILLER_0_51_553
*14326 FILLER_0_51_559
*14327 FILLER_0_51_561
*14328 FILLER_0_51_57
*14329 FILLER_0_51_573
*14330 FILLER_0_51_585
*14331 FILLER_0_51_597
*14332 FILLER_0_51_609
*14333 FILLER_0_51_615
*14334 FILLER_0_51_617
*14335 FILLER_0_51_629
*14336 FILLER_0_51_641
*14337 FILLER_0_51_653
*14338 FILLER_0_51_665
*14339 FILLER_0_51_671
*14340 FILLER_0_51_673
*14341 FILLER_0_51_685
*14342 FILLER_0_51_69
*14343 FILLER_0_51_697
*14344 FILLER_0_51_709
*14345 FILLER_0_51_721
*14346 FILLER_0_51_727
*14347 FILLER_0_51_729
*14348 FILLER_0_51_741
*14349 FILLER_0_51_753
*14350 FILLER_0_51_765
*14351 FILLER_0_51_777
*14352 FILLER_0_51_783
*14353 FILLER_0_51_785
*14354 FILLER_0_51_797
*14355 FILLER_0_51_809
*14356 FILLER_0_51_81
*14357 FILLER_0_51_821
*14358 FILLER_0_51_833
*14359 FILLER_0_51_839
*14360 FILLER_0_51_841
*14361 FILLER_0_51_853
*14362 FILLER_0_51_865
*14363 FILLER_0_51_877
*14364 FILLER_0_51_889
*14365 FILLER_0_51_895
*14366 FILLER_0_51_897
*14367 FILLER_0_51_909
*14368 FILLER_0_51_921
*14369 FILLER_0_51_93
*14370 FILLER_0_51_933
*14371 FILLER_0_51_945
*14372 FILLER_0_51_951
*14373 FILLER_0_51_953
*14374 FILLER_0_51_965
*14375 FILLER_0_51_977
*14376 FILLER_0_51_989
*14377 FILLER_0_52_1005
*14378 FILLER_0_52_1017
*14379 FILLER_0_52_1029
*14380 FILLER_0_52_1035
*14381 FILLER_0_52_1037
*14382 FILLER_0_52_1049
*14383 FILLER_0_52_1057
*14384 FILLER_0_52_109
*14385 FILLER_0_52_121
*14386 FILLER_0_52_133
*14387 FILLER_0_52_139
*14388 FILLER_0_52_141
*14389 FILLER_0_52_15
*14390 FILLER_0_52_153
*14391 FILLER_0_52_165
*14392 FILLER_0_52_177
*14393 FILLER_0_52_189
*14394 FILLER_0_52_195
*14395 FILLER_0_52_197
*14396 FILLER_0_52_209
*14397 FILLER_0_52_221
*14398 FILLER_0_52_233
*14399 FILLER_0_52_245
*14400 FILLER_0_52_251
*14401 FILLER_0_52_253
*14402 FILLER_0_52_265
*14403 FILLER_0_52_27
*14404 FILLER_0_52_277
*14405 FILLER_0_52_289
*14406 FILLER_0_52_29
*14407 FILLER_0_52_3
*14408 FILLER_0_52_301
*14409 FILLER_0_52_307
*14410 FILLER_0_52_309
*14411 FILLER_0_52_321
*14412 FILLER_0_52_333
*14413 FILLER_0_52_345
*14414 FILLER_0_52_357
*14415 FILLER_0_52_363
*14416 FILLER_0_52_365
*14417 FILLER_0_52_377
*14418 FILLER_0_52_389
*14419 FILLER_0_52_401
*14420 FILLER_0_52_41
*14421 FILLER_0_52_413
*14422 FILLER_0_52_419
*14423 FILLER_0_52_421
*14424 FILLER_0_52_433
*14425 FILLER_0_52_445
*14426 FILLER_0_52_457
*14427 FILLER_0_52_469
*14428 FILLER_0_52_475
*14429 FILLER_0_52_477
*14430 FILLER_0_52_489
*14431 FILLER_0_52_501
*14432 FILLER_0_52_513
*14433 FILLER_0_52_525
*14434 FILLER_0_52_53
*14435 FILLER_0_52_531
*14436 FILLER_0_52_533
*14437 FILLER_0_52_545
*14438 FILLER_0_52_557
*14439 FILLER_0_52_569
*14440 FILLER_0_52_581
*14441 FILLER_0_52_587
*14442 FILLER_0_52_589
*14443 FILLER_0_52_601
*14444 FILLER_0_52_613
*14445 FILLER_0_52_625
*14446 FILLER_0_52_637
*14447 FILLER_0_52_643
*14448 FILLER_0_52_645
*14449 FILLER_0_52_65
*14450 FILLER_0_52_657
*14451 FILLER_0_52_669
*14452 FILLER_0_52_681
*14453 FILLER_0_52_693
*14454 FILLER_0_52_699
*14455 FILLER_0_52_701
*14456 FILLER_0_52_713
*14457 FILLER_0_52_725
*14458 FILLER_0_52_737
*14459 FILLER_0_52_749
*14460 FILLER_0_52_755
*14461 FILLER_0_52_757
*14462 FILLER_0_52_769
*14463 FILLER_0_52_77
*14464 FILLER_0_52_781
*14465 FILLER_0_52_793
*14466 FILLER_0_52_805
*14467 FILLER_0_52_811
*14468 FILLER_0_52_813
*14469 FILLER_0_52_825
*14470 FILLER_0_52_83
*14471 FILLER_0_52_837
*14472 FILLER_0_52_849
*14473 FILLER_0_52_85
*14474 FILLER_0_52_861
*14475 FILLER_0_52_867
*14476 FILLER_0_52_869
*14477 FILLER_0_52_881
*14478 FILLER_0_52_893
*14479 FILLER_0_52_905
*14480 FILLER_0_52_917
*14481 FILLER_0_52_923
*14482 FILLER_0_52_925
*14483 FILLER_0_52_937
*14484 FILLER_0_52_949
*14485 FILLER_0_52_961
*14486 FILLER_0_52_97
*14487 FILLER_0_52_973
*14488 FILLER_0_52_979
*14489 FILLER_0_52_981
*14490 FILLER_0_52_993
*14491 FILLER_0_53_1001
*14492 FILLER_0_53_1007
*14493 FILLER_0_53_1009
*14494 FILLER_0_53_1021
*14495 FILLER_0_53_1033
*14496 FILLER_0_53_1045
*14497 FILLER_0_53_105
*14498 FILLER_0_53_1057
*14499 FILLER_0_53_111
*14500 FILLER_0_53_113
*14501 FILLER_0_53_125
*14502 FILLER_0_53_137
*14503 FILLER_0_53_149
*14504 FILLER_0_53_161
*14505 FILLER_0_53_167
*14506 FILLER_0_53_169
*14507 FILLER_0_53_18
*14508 FILLER_0_53_181
*14509 FILLER_0_53_193
*14510 FILLER_0_53_205
*14511 FILLER_0_53_217
*14512 FILLER_0_53_223
*14513 FILLER_0_53_225
*14514 FILLER_0_53_237
*14515 FILLER_0_53_249
*14516 FILLER_0_53_261
*14517 FILLER_0_53_273
*14518 FILLER_0_53_279
*14519 FILLER_0_53_281
*14520 FILLER_0_53_293
*14521 FILLER_0_53_30
*14522 FILLER_0_53_305
*14523 FILLER_0_53_317
*14524 FILLER_0_53_329
*14525 FILLER_0_53_335
*14526 FILLER_0_53_337
*14527 FILLER_0_53_349
*14528 FILLER_0_53_361
*14529 FILLER_0_53_373
*14530 FILLER_0_53_385
*14531 FILLER_0_53_391
*14532 FILLER_0_53_393
*14533 FILLER_0_53_405
*14534 FILLER_0_53_417
*14535 FILLER_0_53_42
*14536 FILLER_0_53_429
*14537 FILLER_0_53_441
*14538 FILLER_0_53_447
*14539 FILLER_0_53_449
*14540 FILLER_0_53_461
*14541 FILLER_0_53_473
*14542 FILLER_0_53_485
*14543 FILLER_0_53_497
*14544 FILLER_0_53_503
*14545 FILLER_0_53_505
*14546 FILLER_0_53_517
*14547 FILLER_0_53_529
*14548 FILLER_0_53_54
*14549 FILLER_0_53_541
*14550 FILLER_0_53_553
*14551 FILLER_0_53_559
*14552 FILLER_0_53_561
*14553 FILLER_0_53_57
*14554 FILLER_0_53_573
*14555 FILLER_0_53_585
*14556 FILLER_0_53_597
*14557 FILLER_0_53_6
*14558 FILLER_0_53_609
*14559 FILLER_0_53_615
*14560 FILLER_0_53_617
*14561 FILLER_0_53_629
*14562 FILLER_0_53_641
*14563 FILLER_0_53_653
*14564 FILLER_0_53_665
*14565 FILLER_0_53_671
*14566 FILLER_0_53_673
*14567 FILLER_0_53_685
*14568 FILLER_0_53_69
*14569 FILLER_0_53_697
*14570 FILLER_0_53_709
*14571 FILLER_0_53_721
*14572 FILLER_0_53_727
*14573 FILLER_0_53_729
*14574 FILLER_0_53_741
*14575 FILLER_0_53_753
*14576 FILLER_0_53_765
*14577 FILLER_0_53_777
*14578 FILLER_0_53_783
*14579 FILLER_0_53_785
*14580 FILLER_0_53_797
*14581 FILLER_0_53_809
*14582 FILLER_0_53_81
*14583 FILLER_0_53_821
*14584 FILLER_0_53_833
*14585 FILLER_0_53_839
*14586 FILLER_0_53_841
*14587 FILLER_0_53_853
*14588 FILLER_0_53_865
*14589 FILLER_0_53_877
*14590 FILLER_0_53_889
*14591 FILLER_0_53_895
*14592 FILLER_0_53_897
*14593 FILLER_0_53_909
*14594 FILLER_0_53_921
*14595 FILLER_0_53_93
*14596 FILLER_0_53_933
*14597 FILLER_0_53_945
*14598 FILLER_0_53_951
*14599 FILLER_0_53_953
*14600 FILLER_0_53_965
*14601 FILLER_0_53_977
*14602 FILLER_0_53_989
*14603 FILLER_0_54_1005
*14604 FILLER_0_54_1017
*14605 FILLER_0_54_1029
*14606 FILLER_0_54_1035
*14607 FILLER_0_54_1037
*14608 FILLER_0_54_1049
*14609 FILLER_0_54_1057
*14610 FILLER_0_54_109
*14611 FILLER_0_54_121
*14612 FILLER_0_54_133
*14613 FILLER_0_54_139
*14614 FILLER_0_54_141
*14615 FILLER_0_54_15
*14616 FILLER_0_54_153
*14617 FILLER_0_54_165
*14618 FILLER_0_54_177
*14619 FILLER_0_54_189
*14620 FILLER_0_54_195
*14621 FILLER_0_54_197
*14622 FILLER_0_54_209
*14623 FILLER_0_54_221
*14624 FILLER_0_54_233
*14625 FILLER_0_54_245
*14626 FILLER_0_54_251
*14627 FILLER_0_54_253
*14628 FILLER_0_54_265
*14629 FILLER_0_54_27
*14630 FILLER_0_54_277
*14631 FILLER_0_54_289
*14632 FILLER_0_54_29
*14633 FILLER_0_54_3
*14634 FILLER_0_54_301
*14635 FILLER_0_54_307
*14636 FILLER_0_54_309
*14637 FILLER_0_54_321
*14638 FILLER_0_54_333
*14639 FILLER_0_54_345
*14640 FILLER_0_54_357
*14641 FILLER_0_54_363
*14642 FILLER_0_54_365
*14643 FILLER_0_54_377
*14644 FILLER_0_54_389
*14645 FILLER_0_54_401
*14646 FILLER_0_54_41
*14647 FILLER_0_54_413
*14648 FILLER_0_54_419
*14649 FILLER_0_54_421
*14650 FILLER_0_54_433
*14651 FILLER_0_54_445
*14652 FILLER_0_54_457
*14653 FILLER_0_54_469
*14654 FILLER_0_54_475
*14655 FILLER_0_54_477
*14656 FILLER_0_54_489
*14657 FILLER_0_54_501
*14658 FILLER_0_54_513
*14659 FILLER_0_54_525
*14660 FILLER_0_54_53
*14661 FILLER_0_54_531
*14662 FILLER_0_54_533
*14663 FILLER_0_54_545
*14664 FILLER_0_54_557
*14665 FILLER_0_54_569
*14666 FILLER_0_54_581
*14667 FILLER_0_54_587
*14668 FILLER_0_54_589
*14669 FILLER_0_54_601
*14670 FILLER_0_54_613
*14671 FILLER_0_54_625
*14672 FILLER_0_54_637
*14673 FILLER_0_54_643
*14674 FILLER_0_54_645
*14675 FILLER_0_54_65
*14676 FILLER_0_54_657
*14677 FILLER_0_54_669
*14678 FILLER_0_54_681
*14679 FILLER_0_54_693
*14680 FILLER_0_54_699
*14681 FILLER_0_54_701
*14682 FILLER_0_54_713
*14683 FILLER_0_54_725
*14684 FILLER_0_54_737
*14685 FILLER_0_54_749
*14686 FILLER_0_54_755
*14687 FILLER_0_54_757
*14688 FILLER_0_54_769
*14689 FILLER_0_54_77
*14690 FILLER_0_54_781
*14691 FILLER_0_54_793
*14692 FILLER_0_54_805
*14693 FILLER_0_54_811
*14694 FILLER_0_54_813
*14695 FILLER_0_54_825
*14696 FILLER_0_54_83
*14697 FILLER_0_54_837
*14698 FILLER_0_54_849
*14699 FILLER_0_54_85
*14700 FILLER_0_54_861
*14701 FILLER_0_54_867
*14702 FILLER_0_54_869
*14703 FILLER_0_54_881
*14704 FILLER_0_54_893
*14705 FILLER_0_54_905
*14706 FILLER_0_54_917
*14707 FILLER_0_54_923
*14708 FILLER_0_54_925
*14709 FILLER_0_54_937
*14710 FILLER_0_54_949
*14711 FILLER_0_54_961
*14712 FILLER_0_54_97
*14713 FILLER_0_54_973
*14714 FILLER_0_54_979
*14715 FILLER_0_54_981
*14716 FILLER_0_54_993
*14717 FILLER_0_55_1001
*14718 FILLER_0_55_1007
*14719 FILLER_0_55_1009
*14720 FILLER_0_55_1021
*14721 FILLER_0_55_1033
*14722 FILLER_0_55_1045
*14723 FILLER_0_55_105
*14724 FILLER_0_55_1057
*14725 FILLER_0_55_111
*14726 FILLER_0_55_113
*14727 FILLER_0_55_125
*14728 FILLER_0_55_137
*14729 FILLER_0_55_14
*14730 FILLER_0_55_149
*14731 FILLER_0_55_161
*14732 FILLER_0_55_167
*14733 FILLER_0_55_169
*14734 FILLER_0_55_181
*14735 FILLER_0_55_193
*14736 FILLER_0_55_205
*14737 FILLER_0_55_217
*14738 FILLER_0_55_223
*14739 FILLER_0_55_225
*14740 FILLER_0_55_237
*14741 FILLER_0_55_249
*14742 FILLER_0_55_261
*14743 FILLER_0_55_273
*14744 FILLER_0_55_279
*14745 FILLER_0_55_281
*14746 FILLER_0_55_293
*14747 FILLER_0_55_3
*14748 FILLER_0_55_305
*14749 FILLER_0_55_317
*14750 FILLER_0_55_329
*14751 FILLER_0_55_335
*14752 FILLER_0_55_337
*14753 FILLER_0_55_34
*14754 FILLER_0_55_349
*14755 FILLER_0_55_361
*14756 FILLER_0_55_373
*14757 FILLER_0_55_385
*14758 FILLER_0_55_391
*14759 FILLER_0_55_393
*14760 FILLER_0_55_405
*14761 FILLER_0_55_417
*14762 FILLER_0_55_429
*14763 FILLER_0_55_441
*14764 FILLER_0_55_447
*14765 FILLER_0_55_449
*14766 FILLER_0_55_46
*14767 FILLER_0_55_461
*14768 FILLER_0_55_473
*14769 FILLER_0_55_485
*14770 FILLER_0_55_497
*14771 FILLER_0_55_503
*14772 FILLER_0_55_505
*14773 FILLER_0_55_517
*14774 FILLER_0_55_529
*14775 FILLER_0_55_54
*14776 FILLER_0_55_541
*14777 FILLER_0_55_553
*14778 FILLER_0_55_559
*14779 FILLER_0_55_561
*14780 FILLER_0_55_57
*14781 FILLER_0_55_573
*14782 FILLER_0_55_585
*14783 FILLER_0_55_597
*14784 FILLER_0_55_609
*14785 FILLER_0_55_615
*14786 FILLER_0_55_617
*14787 FILLER_0_55_629
*14788 FILLER_0_55_641
*14789 FILLER_0_55_653
*14790 FILLER_0_55_665
*14791 FILLER_0_55_671
*14792 FILLER_0_55_673
*14793 FILLER_0_55_685
*14794 FILLER_0_55_69
*14795 FILLER_0_55_697
*14796 FILLER_0_55_709
*14797 FILLER_0_55_721
*14798 FILLER_0_55_727
*14799 FILLER_0_55_729
*14800 FILLER_0_55_741
*14801 FILLER_0_55_753
*14802 FILLER_0_55_765
*14803 FILLER_0_55_777
*14804 FILLER_0_55_783
*14805 FILLER_0_55_785
*14806 FILLER_0_55_797
*14807 FILLER_0_55_809
*14808 FILLER_0_55_81
*14809 FILLER_0_55_821
*14810 FILLER_0_55_833
*14811 FILLER_0_55_839
*14812 FILLER_0_55_841
*14813 FILLER_0_55_853
*14814 FILLER_0_55_865
*14815 FILLER_0_55_877
*14816 FILLER_0_55_889
*14817 FILLER_0_55_895
*14818 FILLER_0_55_897
*14819 FILLER_0_55_909
*14820 FILLER_0_55_921
*14821 FILLER_0_55_93
*14822 FILLER_0_55_933
*14823 FILLER_0_55_945
*14824 FILLER_0_55_951
*14825 FILLER_0_55_953
*14826 FILLER_0_55_965
*14827 FILLER_0_55_977
*14828 FILLER_0_55_989
*14829 FILLER_0_56_1005
*14830 FILLER_0_56_1017
*14831 FILLER_0_56_1029
*14832 FILLER_0_56_1035
*14833 FILLER_0_56_1037
*14834 FILLER_0_56_1049
*14835 FILLER_0_56_1057
*14836 FILLER_0_56_109
*14837 FILLER_0_56_121
*14838 FILLER_0_56_133
*14839 FILLER_0_56_139
*14840 FILLER_0_56_141
*14841 FILLER_0_56_153
*14842 FILLER_0_56_165
*14843 FILLER_0_56_177
*14844 FILLER_0_56_189
*14845 FILLER_0_56_195
*14846 FILLER_0_56_197
*14847 FILLER_0_56_209
*14848 FILLER_0_56_221
*14849 FILLER_0_56_233
*14850 FILLER_0_56_245
*14851 FILLER_0_56_251
*14852 FILLER_0_56_253
*14853 FILLER_0_56_26
*14854 FILLER_0_56_265
*14855 FILLER_0_56_277
*14856 FILLER_0_56_289
*14857 FILLER_0_56_3
*14858 FILLER_0_56_301
*14859 FILLER_0_56_307
*14860 FILLER_0_56_309
*14861 FILLER_0_56_321
*14862 FILLER_0_56_33
*14863 FILLER_0_56_333
*14864 FILLER_0_56_345
*14865 FILLER_0_56_357
*14866 FILLER_0_56_363
*14867 FILLER_0_56_365
*14868 FILLER_0_56_37
*14869 FILLER_0_56_377
*14870 FILLER_0_56_389
*14871 FILLER_0_56_401
*14872 FILLER_0_56_413
*14873 FILLER_0_56_419
*14874 FILLER_0_56_421
*14875 FILLER_0_56_433
*14876 FILLER_0_56_445
*14877 FILLER_0_56_45
*14878 FILLER_0_56_457
*14879 FILLER_0_56_469
*14880 FILLER_0_56_475
*14881 FILLER_0_56_477
*14882 FILLER_0_56_489
*14883 FILLER_0_56_501
*14884 FILLER_0_56_513
*14885 FILLER_0_56_525
*14886 FILLER_0_56_531
*14887 FILLER_0_56_533
*14888 FILLER_0_56_545
*14889 FILLER_0_56_557
*14890 FILLER_0_56_569
*14891 FILLER_0_56_57
*14892 FILLER_0_56_581
*14893 FILLER_0_56_587
*14894 FILLER_0_56_589
*14895 FILLER_0_56_601
*14896 FILLER_0_56_613
*14897 FILLER_0_56_625
*14898 FILLER_0_56_637
*14899 FILLER_0_56_643
*14900 FILLER_0_56_645
*14901 FILLER_0_56_657
*14902 FILLER_0_56_669
*14903 FILLER_0_56_681
*14904 FILLER_0_56_69
*14905 FILLER_0_56_693
*14906 FILLER_0_56_699
*14907 FILLER_0_56_701
*14908 FILLER_0_56_713
*14909 FILLER_0_56_725
*14910 FILLER_0_56_737
*14911 FILLER_0_56_749
*14912 FILLER_0_56_755
*14913 FILLER_0_56_757
*14914 FILLER_0_56_769
*14915 FILLER_0_56_781
*14916 FILLER_0_56_793
*14917 FILLER_0_56_805
*14918 FILLER_0_56_81
*14919 FILLER_0_56_811
*14920 FILLER_0_56_813
*14921 FILLER_0_56_825
*14922 FILLER_0_56_837
*14923 FILLER_0_56_849
*14924 FILLER_0_56_85
*14925 FILLER_0_56_861
*14926 FILLER_0_56_867
*14927 FILLER_0_56_869
*14928 FILLER_0_56_881
*14929 FILLER_0_56_893
*14930 FILLER_0_56_905
*14931 FILLER_0_56_917
*14932 FILLER_0_56_923
*14933 FILLER_0_56_925
*14934 FILLER_0_56_937
*14935 FILLER_0_56_949
*14936 FILLER_0_56_961
*14937 FILLER_0_56_97
*14938 FILLER_0_56_973
*14939 FILLER_0_56_979
*14940 FILLER_0_56_981
*14941 FILLER_0_56_993
*14942 FILLER_0_57_1001
*14943 FILLER_0_57_1007
*14944 FILLER_0_57_1009
*14945 FILLER_0_57_1021
*14946 FILLER_0_57_1033
*14947 FILLER_0_57_1045
*14948 FILLER_0_57_105
*14949 FILLER_0_57_1057
*14950 FILLER_0_57_111
*14951 FILLER_0_57_113
*14952 FILLER_0_57_125
*14953 FILLER_0_57_13
*14954 FILLER_0_57_137
*14955 FILLER_0_57_149
*14956 FILLER_0_57_161
*14957 FILLER_0_57_167
*14958 FILLER_0_57_169
*14959 FILLER_0_57_181
*14960 FILLER_0_57_193
*14961 FILLER_0_57_205
*14962 FILLER_0_57_217
*14963 FILLER_0_57_223
*14964 FILLER_0_57_225
*14965 FILLER_0_57_237
*14966 FILLER_0_57_249
*14967 FILLER_0_57_261
*14968 FILLER_0_57_273
*14969 FILLER_0_57_279
*14970 FILLER_0_57_28
*14971 FILLER_0_57_281
*14972 FILLER_0_57_293
*14973 FILLER_0_57_3
*14974 FILLER_0_57_305
*14975 FILLER_0_57_317
*14976 FILLER_0_57_329
*14977 FILLER_0_57_335
*14978 FILLER_0_57_337
*14979 FILLER_0_57_34
*14980 FILLER_0_57_349
*14981 FILLER_0_57_361
*14982 FILLER_0_57_373
*14983 FILLER_0_57_385
*14984 FILLER_0_57_391
*14985 FILLER_0_57_393
*14986 FILLER_0_57_405
*14987 FILLER_0_57_417
*14988 FILLER_0_57_429
*14989 FILLER_0_57_441
*14990 FILLER_0_57_447
*14991 FILLER_0_57_449
*14992 FILLER_0_57_46
*14993 FILLER_0_57_461
*14994 FILLER_0_57_473
*14995 FILLER_0_57_485
*14996 FILLER_0_57_497
*14997 FILLER_0_57_503
*14998 FILLER_0_57_505
*14999 FILLER_0_57_517
*15000 FILLER_0_57_529
*15001 FILLER_0_57_54
*15002 FILLER_0_57_541
*15003 FILLER_0_57_553
*15004 FILLER_0_57_559
*15005 FILLER_0_57_561
*15006 FILLER_0_57_57
*15007 FILLER_0_57_573
*15008 FILLER_0_57_585
*15009 FILLER_0_57_597
*15010 FILLER_0_57_609
*15011 FILLER_0_57_615
*15012 FILLER_0_57_617
*15013 FILLER_0_57_629
*15014 FILLER_0_57_641
*15015 FILLER_0_57_653
*15016 FILLER_0_57_665
*15017 FILLER_0_57_671
*15018 FILLER_0_57_673
*15019 FILLER_0_57_685
*15020 FILLER_0_57_69
*15021 FILLER_0_57_697
*15022 FILLER_0_57_7
*15023 FILLER_0_57_709
*15024 FILLER_0_57_721
*15025 FILLER_0_57_727
*15026 FILLER_0_57_729
*15027 FILLER_0_57_741
*15028 FILLER_0_57_753
*15029 FILLER_0_57_765
*15030 FILLER_0_57_777
*15031 FILLER_0_57_783
*15032 FILLER_0_57_785
*15033 FILLER_0_57_797
*15034 FILLER_0_57_809
*15035 FILLER_0_57_81
*15036 FILLER_0_57_821
*15037 FILLER_0_57_833
*15038 FILLER_0_57_839
*15039 FILLER_0_57_841
*15040 FILLER_0_57_853
*15041 FILLER_0_57_865
*15042 FILLER_0_57_877
*15043 FILLER_0_57_889
*15044 FILLER_0_57_895
*15045 FILLER_0_57_897
*15046 FILLER_0_57_909
*15047 FILLER_0_57_921
*15048 FILLER_0_57_93
*15049 FILLER_0_57_933
*15050 FILLER_0_57_945
*15051 FILLER_0_57_951
*15052 FILLER_0_57_953
*15053 FILLER_0_57_965
*15054 FILLER_0_57_977
*15055 FILLER_0_57_989
*15056 FILLER_0_58_1005
*15057 FILLER_0_58_101
*15058 FILLER_0_58_1017
*15059 FILLER_0_58_1029
*15060 FILLER_0_58_1035
*15061 FILLER_0_58_1037
*15062 FILLER_0_58_1049
*15063 FILLER_0_58_1057
*15064 FILLER_0_58_11
*15065 FILLER_0_58_113
*15066 FILLER_0_58_125
*15067 FILLER_0_58_137
*15068 FILLER_0_58_141
*15069 FILLER_0_58_153
*15070 FILLER_0_58_165
*15071 FILLER_0_58_177
*15072 FILLER_0_58_189
*15073 FILLER_0_58_195
*15074 FILLER_0_58_197
*15075 FILLER_0_58_209
*15076 FILLER_0_58_221
*15077 FILLER_0_58_23
*15078 FILLER_0_58_233
*15079 FILLER_0_58_245
*15080 FILLER_0_58_251
*15081 FILLER_0_58_253
*15082 FILLER_0_58_265
*15083 FILLER_0_58_27
*15084 FILLER_0_58_277
*15085 FILLER_0_58_289
*15086 FILLER_0_58_29
*15087 FILLER_0_58_3
*15088 FILLER_0_58_301
*15089 FILLER_0_58_307
*15090 FILLER_0_58_309
*15091 FILLER_0_58_321
*15092 FILLER_0_58_333
*15093 FILLER_0_58_34
*15094 FILLER_0_58_345
*15095 FILLER_0_58_357
*15096 FILLER_0_58_363
*15097 FILLER_0_58_365
*15098 FILLER_0_58_377
*15099 FILLER_0_58_389
*15100 FILLER_0_58_401
*15101 FILLER_0_58_413
*15102 FILLER_0_58_419
*15103 FILLER_0_58_421
*15104 FILLER_0_58_433
*15105 FILLER_0_58_445
*15106 FILLER_0_58_457
*15107 FILLER_0_58_46
*15108 FILLER_0_58_469
*15109 FILLER_0_58_475
*15110 FILLER_0_58_477
*15111 FILLER_0_58_489
*15112 FILLER_0_58_501
*15113 FILLER_0_58_513
*15114 FILLER_0_58_525
*15115 FILLER_0_58_531
*15116 FILLER_0_58_533
*15117 FILLER_0_58_545
*15118 FILLER_0_58_557
*15119 FILLER_0_58_569
*15120 FILLER_0_58_58
*15121 FILLER_0_58_581
*15122 FILLER_0_58_587
*15123 FILLER_0_58_589
*15124 FILLER_0_58_601
*15125 FILLER_0_58_613
*15126 FILLER_0_58_625
*15127 FILLER_0_58_637
*15128 FILLER_0_58_643
*15129 FILLER_0_58_645
*15130 FILLER_0_58_657
*15131 FILLER_0_58_669
*15132 FILLER_0_58_681
*15133 FILLER_0_58_693
*15134 FILLER_0_58_699
*15135 FILLER_0_58_70
*15136 FILLER_0_58_701
*15137 FILLER_0_58_713
*15138 FILLER_0_58_725
*15139 FILLER_0_58_737
*15140 FILLER_0_58_74
*15141 FILLER_0_58_749
*15142 FILLER_0_58_755
*15143 FILLER_0_58_757
*15144 FILLER_0_58_769
*15145 FILLER_0_58_781
*15146 FILLER_0_58_793
*15147 FILLER_0_58_805
*15148 FILLER_0_58_811
*15149 FILLER_0_58_813
*15150 FILLER_0_58_825
*15151 FILLER_0_58_83
*15152 FILLER_0_58_837
*15153 FILLER_0_58_849
*15154 FILLER_0_58_85
*15155 FILLER_0_58_861
*15156 FILLER_0_58_867
*15157 FILLER_0_58_869
*15158 FILLER_0_58_881
*15159 FILLER_0_58_89
*15160 FILLER_0_58_893
*15161 FILLER_0_58_905
*15162 FILLER_0_58_917
*15163 FILLER_0_58_923
*15164 FILLER_0_58_925
*15165 FILLER_0_58_937
*15166 FILLER_0_58_949
*15167 FILLER_0_58_961
*15168 FILLER_0_58_973
*15169 FILLER_0_58_979
*15170 FILLER_0_58_981
*15171 FILLER_0_58_993
*15172 FILLER_0_59_1001
*15173 FILLER_0_59_1007
*15174 FILLER_0_59_1009
*15175 FILLER_0_59_1021
*15176 FILLER_0_59_103
*15177 FILLER_0_59_1033
*15178 FILLER_0_59_1045
*15179 FILLER_0_59_1057
*15180 FILLER_0_59_111
*15181 FILLER_0_59_113
*15182 FILLER_0_59_125
*15183 FILLER_0_59_137
*15184 FILLER_0_59_149
*15185 FILLER_0_59_161
*15186 FILLER_0_59_167
*15187 FILLER_0_59_169
*15188 FILLER_0_59_181
*15189 FILLER_0_59_193
*15190 FILLER_0_59_205
*15191 FILLER_0_59_217
*15192 FILLER_0_59_223
*15193 FILLER_0_59_225
*15194 FILLER_0_59_237
*15195 FILLER_0_59_249
*15196 FILLER_0_59_261
*15197 FILLER_0_59_273
*15198 FILLER_0_59_279
*15199 FILLER_0_59_281
*15200 FILLER_0_59_293
*15201 FILLER_0_59_3
*15202 FILLER_0_59_305
*15203 FILLER_0_59_317
*15204 FILLER_0_59_329
*15205 FILLER_0_59_335
*15206 FILLER_0_59_337
*15207 FILLER_0_59_34
*15208 FILLER_0_59_349
*15209 FILLER_0_59_361
*15210 FILLER_0_59_373
*15211 FILLER_0_59_385
*15212 FILLER_0_59_391
*15213 FILLER_0_59_393
*15214 FILLER_0_59_405
*15215 FILLER_0_59_417
*15216 FILLER_0_59_429
*15217 FILLER_0_59_44
*15218 FILLER_0_59_441
*15219 FILLER_0_59_447
*15220 FILLER_0_59_449
*15221 FILLER_0_59_461
*15222 FILLER_0_59_473
*15223 FILLER_0_59_485
*15224 FILLER_0_59_497
*15225 FILLER_0_59_503
*15226 FILLER_0_59_505
*15227 FILLER_0_59_517
*15228 FILLER_0_59_52
*15229 FILLER_0_59_529
*15230 FILLER_0_59_541
*15231 FILLER_0_59_553
*15232 FILLER_0_59_559
*15233 FILLER_0_59_561
*15234 FILLER_0_59_57
*15235 FILLER_0_59_573
*15236 FILLER_0_59_585
*15237 FILLER_0_59_597
*15238 FILLER_0_59_609
*15239 FILLER_0_59_615
*15240 FILLER_0_59_617
*15241 FILLER_0_59_629
*15242 FILLER_0_59_641
*15243 FILLER_0_59_653
*15244 FILLER_0_59_665
*15245 FILLER_0_59_671
*15246 FILLER_0_59_673
*15247 FILLER_0_59_685
*15248 FILLER_0_59_697
*15249 FILLER_0_59_709
*15250 FILLER_0_59_721
*15251 FILLER_0_59_727
*15252 FILLER_0_59_729
*15253 FILLER_0_59_741
*15254 FILLER_0_59_753
*15255 FILLER_0_59_765
*15256 FILLER_0_59_777
*15257 FILLER_0_59_783
*15258 FILLER_0_59_785
*15259 FILLER_0_59_797
*15260 FILLER_0_59_809
*15261 FILLER_0_59_821
*15262 FILLER_0_59_833
*15263 FILLER_0_59_839
*15264 FILLER_0_59_841
*15265 FILLER_0_59_853
*15266 FILLER_0_59_865
*15267 FILLER_0_59_877
*15268 FILLER_0_59_889
*15269 FILLER_0_59_895
*15270 FILLER_0_59_897
*15271 FILLER_0_59_9
*15272 FILLER_0_59_909
*15273 FILLER_0_59_91
*15274 FILLER_0_59_921
*15275 FILLER_0_59_933
*15276 FILLER_0_59_945
*15277 FILLER_0_59_951
*15278 FILLER_0_59_953
*15279 FILLER_0_59_965
*15280 FILLER_0_59_977
*15281 FILLER_0_59_989
*15282 FILLER_0_5_1001
*15283 FILLER_0_5_1007
*15284 FILLER_0_5_1009
*15285 FILLER_0_5_1021
*15286 FILLER_0_5_1033
*15287 FILLER_0_5_1045
*15288 FILLER_0_5_105
*15289 FILLER_0_5_1057
*15290 FILLER_0_5_111
*15291 FILLER_0_5_113
*15292 FILLER_0_5_125
*15293 FILLER_0_5_137
*15294 FILLER_0_5_149
*15295 FILLER_0_5_15
*15296 FILLER_0_5_161
*15297 FILLER_0_5_167
*15298 FILLER_0_5_169
*15299 FILLER_0_5_181
*15300 FILLER_0_5_193
*15301 FILLER_0_5_205
*15302 FILLER_0_5_217
*15303 FILLER_0_5_223
*15304 FILLER_0_5_225
*15305 FILLER_0_5_237
*15306 FILLER_0_5_249
*15307 FILLER_0_5_261
*15308 FILLER_0_5_27
*15309 FILLER_0_5_273
*15310 FILLER_0_5_279
*15311 FILLER_0_5_281
*15312 FILLER_0_5_293
*15313 FILLER_0_5_3
*15314 FILLER_0_5_305
*15315 FILLER_0_5_317
*15316 FILLER_0_5_329
*15317 FILLER_0_5_335
*15318 FILLER_0_5_337
*15319 FILLER_0_5_349
*15320 FILLER_0_5_361
*15321 FILLER_0_5_373
*15322 FILLER_0_5_385
*15323 FILLER_0_5_39
*15324 FILLER_0_5_391
*15325 FILLER_0_5_393
*15326 FILLER_0_5_405
*15327 FILLER_0_5_417
*15328 FILLER_0_5_429
*15329 FILLER_0_5_441
*15330 FILLER_0_5_447
*15331 FILLER_0_5_449
*15332 FILLER_0_5_461
*15333 FILLER_0_5_473
*15334 FILLER_0_5_485
*15335 FILLER_0_5_497
*15336 FILLER_0_5_503
*15337 FILLER_0_5_505
*15338 FILLER_0_5_51
*15339 FILLER_0_5_517
*15340 FILLER_0_5_529
*15341 FILLER_0_5_541
*15342 FILLER_0_5_55
*15343 FILLER_0_5_553
*15344 FILLER_0_5_559
*15345 FILLER_0_5_561
*15346 FILLER_0_5_57
*15347 FILLER_0_5_573
*15348 FILLER_0_5_585
*15349 FILLER_0_5_597
*15350 FILLER_0_5_609
*15351 FILLER_0_5_615
*15352 FILLER_0_5_617
*15353 FILLER_0_5_629
*15354 FILLER_0_5_641
*15355 FILLER_0_5_653
*15356 FILLER_0_5_665
*15357 FILLER_0_5_671
*15358 FILLER_0_5_673
*15359 FILLER_0_5_685
*15360 FILLER_0_5_69
*15361 FILLER_0_5_697
*15362 FILLER_0_5_709
*15363 FILLER_0_5_721
*15364 FILLER_0_5_727
*15365 FILLER_0_5_729
*15366 FILLER_0_5_741
*15367 FILLER_0_5_753
*15368 FILLER_0_5_765
*15369 FILLER_0_5_777
*15370 FILLER_0_5_783
*15371 FILLER_0_5_785
*15372 FILLER_0_5_797
*15373 FILLER_0_5_809
*15374 FILLER_0_5_81
*15375 FILLER_0_5_821
*15376 FILLER_0_5_833
*15377 FILLER_0_5_839
*15378 FILLER_0_5_841
*15379 FILLER_0_5_853
*15380 FILLER_0_5_865
*15381 FILLER_0_5_877
*15382 FILLER_0_5_889
*15383 FILLER_0_5_895
*15384 FILLER_0_5_897
*15385 FILLER_0_5_909
*15386 FILLER_0_5_921
*15387 FILLER_0_5_93
*15388 FILLER_0_5_933
*15389 FILLER_0_5_945
*15390 FILLER_0_5_951
*15391 FILLER_0_5_953
*15392 FILLER_0_5_965
*15393 FILLER_0_5_977
*15394 FILLER_0_5_989
*15395 FILLER_0_60_1005
*15396 FILLER_0_60_101
*15397 FILLER_0_60_1017
*15398 FILLER_0_60_1029
*15399 FILLER_0_60_1035
*15400 FILLER_0_60_1037
*15401 FILLER_0_60_1049
*15402 FILLER_0_60_1057
*15403 FILLER_0_60_113
*15404 FILLER_0_60_125
*15405 FILLER_0_60_137
*15406 FILLER_0_60_141
*15407 FILLER_0_60_15
*15408 FILLER_0_60_153
*15409 FILLER_0_60_165
*15410 FILLER_0_60_177
*15411 FILLER_0_60_189
*15412 FILLER_0_60_195
*15413 FILLER_0_60_197
*15414 FILLER_0_60_209
*15415 FILLER_0_60_221
*15416 FILLER_0_60_233
*15417 FILLER_0_60_24
*15418 FILLER_0_60_245
*15419 FILLER_0_60_251
*15420 FILLER_0_60_253
*15421 FILLER_0_60_265
*15422 FILLER_0_60_277
*15423 FILLER_0_60_289
*15424 FILLER_0_60_29
*15425 FILLER_0_60_3
*15426 FILLER_0_60_301
*15427 FILLER_0_60_307
*15428 FILLER_0_60_309
*15429 FILLER_0_60_321
*15430 FILLER_0_60_333
*15431 FILLER_0_60_345
*15432 FILLER_0_60_357
*15433 FILLER_0_60_363
*15434 FILLER_0_60_365
*15435 FILLER_0_60_37
*15436 FILLER_0_60_377
*15437 FILLER_0_60_389
*15438 FILLER_0_60_401
*15439 FILLER_0_60_413
*15440 FILLER_0_60_419
*15441 FILLER_0_60_421
*15442 FILLER_0_60_433
*15443 FILLER_0_60_445
*15444 FILLER_0_60_457
*15445 FILLER_0_60_469
*15446 FILLER_0_60_475
*15447 FILLER_0_60_477
*15448 FILLER_0_60_489
*15449 FILLER_0_60_501
*15450 FILLER_0_60_513
*15451 FILLER_0_60_525
*15452 FILLER_0_60_531
*15453 FILLER_0_60_533
*15454 FILLER_0_60_545
*15455 FILLER_0_60_557
*15456 FILLER_0_60_569
*15457 FILLER_0_60_581
*15458 FILLER_0_60_587
*15459 FILLER_0_60_589
*15460 FILLER_0_60_59
*15461 FILLER_0_60_601
*15462 FILLER_0_60_613
*15463 FILLER_0_60_625
*15464 FILLER_0_60_637
*15465 FILLER_0_60_643
*15466 FILLER_0_60_645
*15467 FILLER_0_60_657
*15468 FILLER_0_60_669
*15469 FILLER_0_60_681
*15470 FILLER_0_60_693
*15471 FILLER_0_60_699
*15472 FILLER_0_60_701
*15473 FILLER_0_60_713
*15474 FILLER_0_60_725
*15475 FILLER_0_60_737
*15476 FILLER_0_60_749
*15477 FILLER_0_60_755
*15478 FILLER_0_60_757
*15479 FILLER_0_60_769
*15480 FILLER_0_60_781
*15481 FILLER_0_60_793
*15482 FILLER_0_60_805
*15483 FILLER_0_60_811
*15484 FILLER_0_60_813
*15485 FILLER_0_60_825
*15486 FILLER_0_60_837
*15487 FILLER_0_60_849
*15488 FILLER_0_60_861
*15489 FILLER_0_60_867
*15490 FILLER_0_60_869
*15491 FILLER_0_60_881
*15492 FILLER_0_60_893
*15493 FILLER_0_60_905
*15494 FILLER_0_60_917
*15495 FILLER_0_60_923
*15496 FILLER_0_60_925
*15497 FILLER_0_60_937
*15498 FILLER_0_60_949
*15499 FILLER_0_60_961
*15500 FILLER_0_60_973
*15501 FILLER_0_60_979
*15502 FILLER_0_60_981
*15503 FILLER_0_60_993
*15504 FILLER_0_61_1001
*15505 FILLER_0_61_1007
*15506 FILLER_0_61_1009
*15507 FILLER_0_61_1021
*15508 FILLER_0_61_103
*15509 FILLER_0_61_1033
*15510 FILLER_0_61_1045
*15511 FILLER_0_61_1057
*15512 FILLER_0_61_111
*15513 FILLER_0_61_113
*15514 FILLER_0_61_125
*15515 FILLER_0_61_137
*15516 FILLER_0_61_149
*15517 FILLER_0_61_161
*15518 FILLER_0_61_167
*15519 FILLER_0_61_169
*15520 FILLER_0_61_181
*15521 FILLER_0_61_193
*15522 FILLER_0_61_205
*15523 FILLER_0_61_217
*15524 FILLER_0_61_223
*15525 FILLER_0_61_225
*15526 FILLER_0_61_237
*15527 FILLER_0_61_249
*15528 FILLER_0_61_26
*15529 FILLER_0_61_261
*15530 FILLER_0_61_273
*15531 FILLER_0_61_279
*15532 FILLER_0_61_281
*15533 FILLER_0_61_293
*15534 FILLER_0_61_3
*15535 FILLER_0_61_305
*15536 FILLER_0_61_317
*15537 FILLER_0_61_329
*15538 FILLER_0_61_335
*15539 FILLER_0_61_337
*15540 FILLER_0_61_349
*15541 FILLER_0_61_361
*15542 FILLER_0_61_373
*15543 FILLER_0_61_38
*15544 FILLER_0_61_385
*15545 FILLER_0_61_391
*15546 FILLER_0_61_393
*15547 FILLER_0_61_405
*15548 FILLER_0_61_417
*15549 FILLER_0_61_429
*15550 FILLER_0_61_441
*15551 FILLER_0_61_447
*15552 FILLER_0_61_449
*15553 FILLER_0_61_46
*15554 FILLER_0_61_461
*15555 FILLER_0_61_473
*15556 FILLER_0_61_485
*15557 FILLER_0_61_497
*15558 FILLER_0_61_50
*15559 FILLER_0_61_503
*15560 FILLER_0_61_505
*15561 FILLER_0_61_517
*15562 FILLER_0_61_529
*15563 FILLER_0_61_541
*15564 FILLER_0_61_553
*15565 FILLER_0_61_559
*15566 FILLER_0_61_561
*15567 FILLER_0_61_57
*15568 FILLER_0_61_573
*15569 FILLER_0_61_585
*15570 FILLER_0_61_597
*15571 FILLER_0_61_609
*15572 FILLER_0_61_615
*15573 FILLER_0_61_617
*15574 FILLER_0_61_629
*15575 FILLER_0_61_641
*15576 FILLER_0_61_653
*15577 FILLER_0_61_665
*15578 FILLER_0_61_671
*15579 FILLER_0_61_673
*15580 FILLER_0_61_685
*15581 FILLER_0_61_697
*15582 FILLER_0_61_709
*15583 FILLER_0_61_721
*15584 FILLER_0_61_727
*15585 FILLER_0_61_729
*15586 FILLER_0_61_741
*15587 FILLER_0_61_753
*15588 FILLER_0_61_765
*15589 FILLER_0_61_777
*15590 FILLER_0_61_783
*15591 FILLER_0_61_785
*15592 FILLER_0_61_797
*15593 FILLER_0_61_809
*15594 FILLER_0_61_821
*15595 FILLER_0_61_833
*15596 FILLER_0_61_839
*15597 FILLER_0_61_84
*15598 FILLER_0_61_841
*15599 FILLER_0_61_853
*15600 FILLER_0_61_865
*15601 FILLER_0_61_877
*15602 FILLER_0_61_889
*15603 FILLER_0_61_895
*15604 FILLER_0_61_897
*15605 FILLER_0_61_9
*15606 FILLER_0_61_909
*15607 FILLER_0_61_921
*15608 FILLER_0_61_93
*15609 FILLER_0_61_933
*15610 FILLER_0_61_945
*15611 FILLER_0_61_951
*15612 FILLER_0_61_953
*15613 FILLER_0_61_965
*15614 FILLER_0_61_977
*15615 FILLER_0_61_989
*15616 FILLER_0_62_1005
*15617 FILLER_0_62_1017
*15618 FILLER_0_62_1029
*15619 FILLER_0_62_1035
*15620 FILLER_0_62_1037
*15621 FILLER_0_62_1049
*15622 FILLER_0_62_1057
*15623 FILLER_0_62_106
*15624 FILLER_0_62_114
*15625 FILLER_0_62_125
*15626 FILLER_0_62_13
*15627 FILLER_0_62_137
*15628 FILLER_0_62_141
*15629 FILLER_0_62_153
*15630 FILLER_0_62_165
*15631 FILLER_0_62_17
*15632 FILLER_0_62_177
*15633 FILLER_0_62_189
*15634 FILLER_0_62_195
*15635 FILLER_0_62_197
*15636 FILLER_0_62_209
*15637 FILLER_0_62_221
*15638 FILLER_0_62_233
*15639 FILLER_0_62_245
*15640 FILLER_0_62_25
*15641 FILLER_0_62_251
*15642 FILLER_0_62_253
*15643 FILLER_0_62_265
*15644 FILLER_0_62_277
*15645 FILLER_0_62_289
*15646 FILLER_0_62_29
*15647 FILLER_0_62_3
*15648 FILLER_0_62_301
*15649 FILLER_0_62_307
*15650 FILLER_0_62_309
*15651 FILLER_0_62_321
*15652 FILLER_0_62_333
*15653 FILLER_0_62_345
*15654 FILLER_0_62_357
*15655 FILLER_0_62_363
*15656 FILLER_0_62_365
*15657 FILLER_0_62_377
*15658 FILLER_0_62_389
*15659 FILLER_0_62_401
*15660 FILLER_0_62_413
*15661 FILLER_0_62_419
*15662 FILLER_0_62_421
*15663 FILLER_0_62_433
*15664 FILLER_0_62_445
*15665 FILLER_0_62_457
*15666 FILLER_0_62_469
*15667 FILLER_0_62_475
*15668 FILLER_0_62_477
*15669 FILLER_0_62_48
*15670 FILLER_0_62_489
*15671 FILLER_0_62_501
*15672 FILLER_0_62_513
*15673 FILLER_0_62_525
*15674 FILLER_0_62_531
*15675 FILLER_0_62_533
*15676 FILLER_0_62_545
*15677 FILLER_0_62_557
*15678 FILLER_0_62_569
*15679 FILLER_0_62_581
*15680 FILLER_0_62_587
*15681 FILLER_0_62_589
*15682 FILLER_0_62_601
*15683 FILLER_0_62_613
*15684 FILLER_0_62_625
*15685 FILLER_0_62_637
*15686 FILLER_0_62_643
*15687 FILLER_0_62_645
*15688 FILLER_0_62_657
*15689 FILLER_0_62_669
*15690 FILLER_0_62_681
*15691 FILLER_0_62_693
*15692 FILLER_0_62_699
*15693 FILLER_0_62_701
*15694 FILLER_0_62_713
*15695 FILLER_0_62_725
*15696 FILLER_0_62_737
*15697 FILLER_0_62_749
*15698 FILLER_0_62_755
*15699 FILLER_0_62_757
*15700 FILLER_0_62_769
*15701 FILLER_0_62_781
*15702 FILLER_0_62_793
*15703 FILLER_0_62_805
*15704 FILLER_0_62_81
*15705 FILLER_0_62_811
*15706 FILLER_0_62_813
*15707 FILLER_0_62_825
*15708 FILLER_0_62_837
*15709 FILLER_0_62_849
*15710 FILLER_0_62_861
*15711 FILLER_0_62_867
*15712 FILLER_0_62_869
*15713 FILLER_0_62_881
*15714 FILLER_0_62_89
*15715 FILLER_0_62_893
*15716 FILLER_0_62_9
*15717 FILLER_0_62_905
*15718 FILLER_0_62_917
*15719 FILLER_0_62_923
*15720 FILLER_0_62_925
*15721 FILLER_0_62_937
*15722 FILLER_0_62_949
*15723 FILLER_0_62_961
*15724 FILLER_0_62_973
*15725 FILLER_0_62_979
*15726 FILLER_0_62_981
*15727 FILLER_0_62_993
*15728 FILLER_0_63_1001
*15729 FILLER_0_63_1007
*15730 FILLER_0_63_1009
*15731 FILLER_0_63_1021
*15732 FILLER_0_63_103
*15733 FILLER_0_63_1033
*15734 FILLER_0_63_1045
*15735 FILLER_0_63_1057
*15736 FILLER_0_63_111
*15737 FILLER_0_63_113
*15738 FILLER_0_63_133
*15739 FILLER_0_63_145
*15740 FILLER_0_63_157
*15741 FILLER_0_63_165
*15742 FILLER_0_63_169
*15743 FILLER_0_63_181
*15744 FILLER_0_63_193
*15745 FILLER_0_63_205
*15746 FILLER_0_63_217
*15747 FILLER_0_63_223
*15748 FILLER_0_63_225
*15749 FILLER_0_63_237
*15750 FILLER_0_63_249
*15751 FILLER_0_63_261
*15752 FILLER_0_63_273
*15753 FILLER_0_63_279
*15754 FILLER_0_63_281
*15755 FILLER_0_63_293
*15756 FILLER_0_63_305
*15757 FILLER_0_63_317
*15758 FILLER_0_63_329
*15759 FILLER_0_63_335
*15760 FILLER_0_63_337
*15761 FILLER_0_63_349
*15762 FILLER_0_63_361
*15763 FILLER_0_63_373
*15764 FILLER_0_63_385
*15765 FILLER_0_63_391
*15766 FILLER_0_63_393
*15767 FILLER_0_63_405
*15768 FILLER_0_63_417
*15769 FILLER_0_63_429
*15770 FILLER_0_63_441
*15771 FILLER_0_63_447
*15772 FILLER_0_63_449
*15773 FILLER_0_63_461
*15774 FILLER_0_63_473
*15775 FILLER_0_63_485
*15776 FILLER_0_63_497
*15777 FILLER_0_63_503
*15778 FILLER_0_63_505
*15779 FILLER_0_63_51
*15780 FILLER_0_63_517
*15781 FILLER_0_63_529
*15782 FILLER_0_63_541
*15783 FILLER_0_63_55
*15784 FILLER_0_63_553
*15785 FILLER_0_63_559
*15786 FILLER_0_63_561
*15787 FILLER_0_63_573
*15788 FILLER_0_63_585
*15789 FILLER_0_63_597
*15790 FILLER_0_63_609
*15791 FILLER_0_63_615
*15792 FILLER_0_63_617
*15793 FILLER_0_63_629
*15794 FILLER_0_63_641
*15795 FILLER_0_63_653
*15796 FILLER_0_63_665
*15797 FILLER_0_63_671
*15798 FILLER_0_63_673
*15799 FILLER_0_63_685
*15800 FILLER_0_63_697
*15801 FILLER_0_63_7
*15802 FILLER_0_63_70
*15803 FILLER_0_63_709
*15804 FILLER_0_63_721
*15805 FILLER_0_63_727
*15806 FILLER_0_63_729
*15807 FILLER_0_63_741
*15808 FILLER_0_63_753
*15809 FILLER_0_63_765
*15810 FILLER_0_63_777
*15811 FILLER_0_63_783
*15812 FILLER_0_63_785
*15813 FILLER_0_63_797
*15814 FILLER_0_63_809
*15815 FILLER_0_63_821
*15816 FILLER_0_63_833
*15817 FILLER_0_63_839
*15818 FILLER_0_63_841
*15819 FILLER_0_63_853
*15820 FILLER_0_63_865
*15821 FILLER_0_63_877
*15822 FILLER_0_63_889
*15823 FILLER_0_63_895
*15824 FILLER_0_63_897
*15825 FILLER_0_63_909
*15826 FILLER_0_63_91
*15827 FILLER_0_63_921
*15828 FILLER_0_63_933
*15829 FILLER_0_63_945
*15830 FILLER_0_63_951
*15831 FILLER_0_63_953
*15832 FILLER_0_63_965
*15833 FILLER_0_63_977
*15834 FILLER_0_63_989
*15835 FILLER_0_64_1005
*15836 FILLER_0_64_1017
*15837 FILLER_0_64_1029
*15838 FILLER_0_64_1035
*15839 FILLER_0_64_1037
*15840 FILLER_0_64_1049
*15841 FILLER_0_64_1057
*15842 FILLER_0_64_123
*15843 FILLER_0_64_133
*15844 FILLER_0_64_139
*15845 FILLER_0_64_15
*15846 FILLER_0_64_157
*15847 FILLER_0_64_161
*15848 FILLER_0_64_178
*15849 FILLER_0_64_190
*15850 FILLER_0_64_197
*15851 FILLER_0_64_209
*15852 FILLER_0_64_221
*15853 FILLER_0_64_23
*15854 FILLER_0_64_233
*15855 FILLER_0_64_245
*15856 FILLER_0_64_251
*15857 FILLER_0_64_253
*15858 FILLER_0_64_265
*15859 FILLER_0_64_277
*15860 FILLER_0_64_289
*15861 FILLER_0_64_3
*15862 FILLER_0_64_301
*15863 FILLER_0_64_307
*15864 FILLER_0_64_309
*15865 FILLER_0_64_321
*15866 FILLER_0_64_333
*15867 FILLER_0_64_345
*15868 FILLER_0_64_357
*15869 FILLER_0_64_363
*15870 FILLER_0_64_365
*15871 FILLER_0_64_377
*15872 FILLER_0_64_389
*15873 FILLER_0_64_401
*15874 FILLER_0_64_413
*15875 FILLER_0_64_419
*15876 FILLER_0_64_421
*15877 FILLER_0_64_433
*15878 FILLER_0_64_445
*15879 FILLER_0_64_457
*15880 FILLER_0_64_46
*15881 FILLER_0_64_469
*15882 FILLER_0_64_475
*15883 FILLER_0_64_477
*15884 FILLER_0_64_489
*15885 FILLER_0_64_50
*15886 FILLER_0_64_501
*15887 FILLER_0_64_513
*15888 FILLER_0_64_525
*15889 FILLER_0_64_531
*15890 FILLER_0_64_533
*15891 FILLER_0_64_545
*15892 FILLER_0_64_557
*15893 FILLER_0_64_569
*15894 FILLER_0_64_581
*15895 FILLER_0_64_587
*15896 FILLER_0_64_589
*15897 FILLER_0_64_601
*15898 FILLER_0_64_613
*15899 FILLER_0_64_62
*15900 FILLER_0_64_625
*15901 FILLER_0_64_637
*15902 FILLER_0_64_643
*15903 FILLER_0_64_645
*15904 FILLER_0_64_657
*15905 FILLER_0_64_66
*15906 FILLER_0_64_669
*15907 FILLER_0_64_681
*15908 FILLER_0_64_693
*15909 FILLER_0_64_699
*15910 FILLER_0_64_7
*15911 FILLER_0_64_701
*15912 FILLER_0_64_713
*15913 FILLER_0_64_725
*15914 FILLER_0_64_737
*15915 FILLER_0_64_749
*15916 FILLER_0_64_755
*15917 FILLER_0_64_757
*15918 FILLER_0_64_769
*15919 FILLER_0_64_781
*15920 FILLER_0_64_793
*15921 FILLER_0_64_805
*15922 FILLER_0_64_811
*15923 FILLER_0_64_813
*15924 FILLER_0_64_82
*15925 FILLER_0_64_825
*15926 FILLER_0_64_837
*15927 FILLER_0_64_849
*15928 FILLER_0_64_861
*15929 FILLER_0_64_867
*15930 FILLER_0_64_869
*15931 FILLER_0_64_881
*15932 FILLER_0_64_893
*15933 FILLER_0_64_905
*15934 FILLER_0_64_917
*15935 FILLER_0_64_923
*15936 FILLER_0_64_925
*15937 FILLER_0_64_93
*15938 FILLER_0_64_937
*15939 FILLER_0_64_949
*15940 FILLER_0_64_961
*15941 FILLER_0_64_973
*15942 FILLER_0_64_979
*15943 FILLER_0_64_981
*15944 FILLER_0_64_993
*15945 FILLER_0_65_1001
*15946 FILLER_0_65_1007
*15947 FILLER_0_65_1009
*15948 FILLER_0_65_1021
*15949 FILLER_0_65_1033
*15950 FILLER_0_65_1045
*15951 FILLER_0_65_105
*15952 FILLER_0_65_1057
*15953 FILLER_0_65_108
*15954 FILLER_0_65_123
*15955 FILLER_0_65_13
*15956 FILLER_0_65_185
*15957 FILLER_0_65_197
*15958 FILLER_0_65_209
*15959 FILLER_0_65_221
*15960 FILLER_0_65_225
*15961 FILLER_0_65_237
*15962 FILLER_0_65_249
*15963 FILLER_0_65_25
*15964 FILLER_0_65_261
*15965 FILLER_0_65_273
*15966 FILLER_0_65_279
*15967 FILLER_0_65_281
*15968 FILLER_0_65_29
*15969 FILLER_0_65_293
*15970 FILLER_0_65_3
*15971 FILLER_0_65_305
*15972 FILLER_0_65_317
*15973 FILLER_0_65_329
*15974 FILLER_0_65_335
*15975 FILLER_0_65_337
*15976 FILLER_0_65_349
*15977 FILLER_0_65_36
*15978 FILLER_0_65_361
*15979 FILLER_0_65_373
*15980 FILLER_0_65_385
*15981 FILLER_0_65_391
*15982 FILLER_0_65_393
*15983 FILLER_0_65_40
*15984 FILLER_0_65_405
*15985 FILLER_0_65_417
*15986 FILLER_0_65_429
*15987 FILLER_0_65_441
*15988 FILLER_0_65_447
*15989 FILLER_0_65_449
*15990 FILLER_0_65_461
*15991 FILLER_0_65_473
*15992 FILLER_0_65_485
*15993 FILLER_0_65_497
*15994 FILLER_0_65_503
*15995 FILLER_0_65_505
*15996 FILLER_0_65_517
*15997 FILLER_0_65_529
*15998 FILLER_0_65_541
*15999 FILLER_0_65_55
*16000 FILLER_0_65_553
*16001 FILLER_0_65_559
*16002 FILLER_0_65_561
*16003 FILLER_0_65_573
*16004 FILLER_0_65_585
*16005 FILLER_0_65_597
*16006 FILLER_0_65_609
*16007 FILLER_0_65_615
*16008 FILLER_0_65_617
*16009 FILLER_0_65_62
*16010 FILLER_0_65_629
*16011 FILLER_0_65_641
*16012 FILLER_0_65_653
*16013 FILLER_0_65_665
*16014 FILLER_0_65_671
*16015 FILLER_0_65_673
*16016 FILLER_0_65_685
*16017 FILLER_0_65_697
*16018 FILLER_0_65_709
*16019 FILLER_0_65_721
*16020 FILLER_0_65_727
*16021 FILLER_0_65_729
*16022 FILLER_0_65_74
*16023 FILLER_0_65_741
*16024 FILLER_0_65_753
*16025 FILLER_0_65_765
*16026 FILLER_0_65_777
*16027 FILLER_0_65_783
*16028 FILLER_0_65_785
*16029 FILLER_0_65_797
*16030 FILLER_0_65_809
*16031 FILLER_0_65_821
*16032 FILLER_0_65_833
*16033 FILLER_0_65_839
*16034 FILLER_0_65_841
*16035 FILLER_0_65_853
*16036 FILLER_0_65_86
*16037 FILLER_0_65_865
*16038 FILLER_0_65_877
*16039 FILLER_0_65_889
*16040 FILLER_0_65_895
*16041 FILLER_0_65_897
*16042 FILLER_0_65_9
*16043 FILLER_0_65_909
*16044 FILLER_0_65_921
*16045 FILLER_0_65_93
*16046 FILLER_0_65_933
*16047 FILLER_0_65_945
*16048 FILLER_0_65_951
*16049 FILLER_0_65_953
*16050 FILLER_0_65_965
*16051 FILLER_0_65_977
*16052 FILLER_0_65_989
*16053 FILLER_0_65_99
*16054 FILLER_0_66_1005
*16055 FILLER_0_66_1017
*16056 FILLER_0_66_1029
*16057 FILLER_0_66_1035
*16058 FILLER_0_66_1037
*16059 FILLER_0_66_1049
*16060 FILLER_0_66_1057
*16061 FILLER_0_66_112
*16062 FILLER_0_66_121
*16063 FILLER_0_66_145
*16064 FILLER_0_66_15
*16065 FILLER_0_66_157
*16066 FILLER_0_66_163
*16067 FILLER_0_66_168
*16068 FILLER_0_66_180
*16069 FILLER_0_66_192
*16070 FILLER_0_66_197
*16071 FILLER_0_66_209
*16072 FILLER_0_66_221
*16073 FILLER_0_66_233
*16074 FILLER_0_66_245
*16075 FILLER_0_66_251
*16076 FILLER_0_66_253
*16077 FILLER_0_66_265
*16078 FILLER_0_66_27
*16079 FILLER_0_66_277
*16080 FILLER_0_66_289
*16081 FILLER_0_66_29
*16082 FILLER_0_66_3
*16083 FILLER_0_66_301
*16084 FILLER_0_66_307
*16085 FILLER_0_66_309
*16086 FILLER_0_66_321
*16087 FILLER_0_66_333
*16088 FILLER_0_66_345
*16089 FILLER_0_66_357
*16090 FILLER_0_66_363
*16091 FILLER_0_66_365
*16092 FILLER_0_66_377
*16093 FILLER_0_66_389
*16094 FILLER_0_66_401
*16095 FILLER_0_66_413
*16096 FILLER_0_66_419
*16097 FILLER_0_66_421
*16098 FILLER_0_66_433
*16099 FILLER_0_66_445
*16100 FILLER_0_66_457
*16101 FILLER_0_66_469
*16102 FILLER_0_66_475
*16103 FILLER_0_66_477
*16104 FILLER_0_66_489
*16105 FILLER_0_66_501
*16106 FILLER_0_66_513
*16107 FILLER_0_66_525
*16108 FILLER_0_66_531
*16109 FILLER_0_66_533
*16110 FILLER_0_66_545
*16111 FILLER_0_66_557
*16112 FILLER_0_66_569
*16113 FILLER_0_66_581
*16114 FILLER_0_66_587
*16115 FILLER_0_66_589
*16116 FILLER_0_66_601
*16117 FILLER_0_66_613
*16118 FILLER_0_66_625
*16119 FILLER_0_66_637
*16120 FILLER_0_66_643
*16121 FILLER_0_66_645
*16122 FILLER_0_66_657
*16123 FILLER_0_66_669
*16124 FILLER_0_66_681
*16125 FILLER_0_66_69
*16126 FILLER_0_66_693
*16127 FILLER_0_66_699
*16128 FILLER_0_66_701
*16129 FILLER_0_66_713
*16130 FILLER_0_66_725
*16131 FILLER_0_66_737
*16132 FILLER_0_66_749
*16133 FILLER_0_66_755
*16134 FILLER_0_66_757
*16135 FILLER_0_66_769
*16136 FILLER_0_66_781
*16137 FILLER_0_66_793
*16138 FILLER_0_66_805
*16139 FILLER_0_66_81
*16140 FILLER_0_66_811
*16141 FILLER_0_66_813
*16142 FILLER_0_66_825
*16143 FILLER_0_66_837
*16144 FILLER_0_66_849
*16145 FILLER_0_66_85
*16146 FILLER_0_66_861
*16147 FILLER_0_66_867
*16148 FILLER_0_66_869
*16149 FILLER_0_66_881
*16150 FILLER_0_66_893
*16151 FILLER_0_66_905
*16152 FILLER_0_66_917
*16153 FILLER_0_66_923
*16154 FILLER_0_66_925
*16155 FILLER_0_66_937
*16156 FILLER_0_66_949
*16157 FILLER_0_66_961
*16158 FILLER_0_66_97
*16159 FILLER_0_66_973
*16160 FILLER_0_66_979
*16161 FILLER_0_66_981
*16162 FILLER_0_66_993
*16163 FILLER_0_67_1001
*16164 FILLER_0_67_1007
*16165 FILLER_0_67_1009
*16166 FILLER_0_67_1021
*16167 FILLER_0_67_1033
*16168 FILLER_0_67_1045
*16169 FILLER_0_67_1057
*16170 FILLER_0_67_113
*16171 FILLER_0_67_125
*16172 FILLER_0_67_141
*16173 FILLER_0_67_145
*16174 FILLER_0_67_149
*16175 FILLER_0_67_15
*16176 FILLER_0_67_153
*16177 FILLER_0_67_162
*16178 FILLER_0_67_169
*16179 FILLER_0_67_181
*16180 FILLER_0_67_185
*16181 FILLER_0_67_197
*16182 FILLER_0_67_209
*16183 FILLER_0_67_221
*16184 FILLER_0_67_225
*16185 FILLER_0_67_237
*16186 FILLER_0_67_249
*16187 FILLER_0_67_261
*16188 FILLER_0_67_273
*16189 FILLER_0_67_279
*16190 FILLER_0_67_28
*16191 FILLER_0_67_281
*16192 FILLER_0_67_293
*16193 FILLER_0_67_3
*16194 FILLER_0_67_305
*16195 FILLER_0_67_317
*16196 FILLER_0_67_329
*16197 FILLER_0_67_335
*16198 FILLER_0_67_337
*16199 FILLER_0_67_349
*16200 FILLER_0_67_361
*16201 FILLER_0_67_373
*16202 FILLER_0_67_38
*16203 FILLER_0_67_385
*16204 FILLER_0_67_391
*16205 FILLER_0_67_393
*16206 FILLER_0_67_405
*16207 FILLER_0_67_417
*16208 FILLER_0_67_429
*16209 FILLER_0_67_441
*16210 FILLER_0_67_447
*16211 FILLER_0_67_449
*16212 FILLER_0_67_46
*16213 FILLER_0_67_461
*16214 FILLER_0_67_473
*16215 FILLER_0_67_485
*16216 FILLER_0_67_497
*16217 FILLER_0_67_50
*16218 FILLER_0_67_503
*16219 FILLER_0_67_505
*16220 FILLER_0_67_517
*16221 FILLER_0_67_529
*16222 FILLER_0_67_541
*16223 FILLER_0_67_553
*16224 FILLER_0_67_559
*16225 FILLER_0_67_561
*16226 FILLER_0_67_57
*16227 FILLER_0_67_573
*16228 FILLER_0_67_585
*16229 FILLER_0_67_597
*16230 FILLER_0_67_609
*16231 FILLER_0_67_615
*16232 FILLER_0_67_617
*16233 FILLER_0_67_629
*16234 FILLER_0_67_641
*16235 FILLER_0_67_653
*16236 FILLER_0_67_665
*16237 FILLER_0_67_671
*16238 FILLER_0_67_673
*16239 FILLER_0_67_685
*16240 FILLER_0_67_697
*16241 FILLER_0_67_7
*16242 FILLER_0_67_709
*16243 FILLER_0_67_721
*16244 FILLER_0_67_727
*16245 FILLER_0_67_729
*16246 FILLER_0_67_741
*16247 FILLER_0_67_753
*16248 FILLER_0_67_765
*16249 FILLER_0_67_777
*16250 FILLER_0_67_783
*16251 FILLER_0_67_785
*16252 FILLER_0_67_797
*16253 FILLER_0_67_809
*16254 FILLER_0_67_821
*16255 FILLER_0_67_833
*16256 FILLER_0_67_839
*16257 FILLER_0_67_841
*16258 FILLER_0_67_853
*16259 FILLER_0_67_865
*16260 FILLER_0_67_87
*16261 FILLER_0_67_877
*16262 FILLER_0_67_889
*16263 FILLER_0_67_895
*16264 FILLER_0_67_897
*16265 FILLER_0_67_909
*16266 FILLER_0_67_921
*16267 FILLER_0_67_933
*16268 FILLER_0_67_945
*16269 FILLER_0_67_95
*16270 FILLER_0_67_951
*16271 FILLER_0_67_953
*16272 FILLER_0_67_965
*16273 FILLER_0_67_977
*16274 FILLER_0_67_989
*16275 FILLER_0_68_10
*16276 FILLER_0_68_1005
*16277 FILLER_0_68_1017
*16278 FILLER_0_68_1029
*16279 FILLER_0_68_1035
*16280 FILLER_0_68_1037
*16281 FILLER_0_68_1049
*16282 FILLER_0_68_1057
*16283 FILLER_0_68_115
*16284 FILLER_0_68_141
*16285 FILLER_0_68_153
*16286 FILLER_0_68_165
*16287 FILLER_0_68_177
*16288 FILLER_0_68_18
*16289 FILLER_0_68_189
*16290 FILLER_0_68_195
*16291 FILLER_0_68_197
*16292 FILLER_0_68_209
*16293 FILLER_0_68_221
*16294 FILLER_0_68_233
*16295 FILLER_0_68_245
*16296 FILLER_0_68_251
*16297 FILLER_0_68_253
*16298 FILLER_0_68_26
*16299 FILLER_0_68_265
*16300 FILLER_0_68_277
*16301 FILLER_0_68_289
*16302 FILLER_0_68_301
*16303 FILLER_0_68_307
*16304 FILLER_0_68_309
*16305 FILLER_0_68_321
*16306 FILLER_0_68_333
*16307 FILLER_0_68_345
*16308 FILLER_0_68_357
*16309 FILLER_0_68_36
*16310 FILLER_0_68_363
*16311 FILLER_0_68_365
*16312 FILLER_0_68_377
*16313 FILLER_0_68_389
*16314 FILLER_0_68_40
*16315 FILLER_0_68_401
*16316 FILLER_0_68_413
*16317 FILLER_0_68_419
*16318 FILLER_0_68_421
*16319 FILLER_0_68_433
*16320 FILLER_0_68_445
*16321 FILLER_0_68_457
*16322 FILLER_0_68_469
*16323 FILLER_0_68_475
*16324 FILLER_0_68_477
*16325 FILLER_0_68_48
*16326 FILLER_0_68_489
*16327 FILLER_0_68_501
*16328 FILLER_0_68_513
*16329 FILLER_0_68_52
*16330 FILLER_0_68_525
*16331 FILLER_0_68_531
*16332 FILLER_0_68_533
*16333 FILLER_0_68_545
*16334 FILLER_0_68_557
*16335 FILLER_0_68_569
*16336 FILLER_0_68_581
*16337 FILLER_0_68_587
*16338 FILLER_0_68_589
*16339 FILLER_0_68_6
*16340 FILLER_0_68_601
*16341 FILLER_0_68_613
*16342 FILLER_0_68_625
*16343 FILLER_0_68_637
*16344 FILLER_0_68_643
*16345 FILLER_0_68_645
*16346 FILLER_0_68_657
*16347 FILLER_0_68_669
*16348 FILLER_0_68_681
*16349 FILLER_0_68_693
*16350 FILLER_0_68_699
*16351 FILLER_0_68_701
*16352 FILLER_0_68_713
*16353 FILLER_0_68_725
*16354 FILLER_0_68_737
*16355 FILLER_0_68_74
*16356 FILLER_0_68_749
*16357 FILLER_0_68_755
*16358 FILLER_0_68_757
*16359 FILLER_0_68_769
*16360 FILLER_0_68_781
*16361 FILLER_0_68_793
*16362 FILLER_0_68_805
*16363 FILLER_0_68_811
*16364 FILLER_0_68_813
*16365 FILLER_0_68_82
*16366 FILLER_0_68_825
*16367 FILLER_0_68_837
*16368 FILLER_0_68_849
*16369 FILLER_0_68_85
*16370 FILLER_0_68_861
*16371 FILLER_0_68_867
*16372 FILLER_0_68_869
*16373 FILLER_0_68_881
*16374 FILLER_0_68_893
*16375 FILLER_0_68_905
*16376 FILLER_0_68_91
*16377 FILLER_0_68_917
*16378 FILLER_0_68_923
*16379 FILLER_0_68_925
*16380 FILLER_0_68_937
*16381 FILLER_0_68_949
*16382 FILLER_0_68_961
*16383 FILLER_0_68_973
*16384 FILLER_0_68_979
*16385 FILLER_0_68_981
*16386 FILLER_0_68_993
*16387 FILLER_0_69_1001
*16388 FILLER_0_69_1007
*16389 FILLER_0_69_1009
*16390 FILLER_0_69_1021
*16391 FILLER_0_69_1033
*16392 FILLER_0_69_1045
*16393 FILLER_0_69_105
*16394 FILLER_0_69_1057
*16395 FILLER_0_69_111
*16396 FILLER_0_69_113
*16397 FILLER_0_69_126
*16398 FILLER_0_69_138
*16399 FILLER_0_69_150
*16400 FILLER_0_69_154
*16401 FILLER_0_69_167
*16402 FILLER_0_69_169
*16403 FILLER_0_69_181
*16404 FILLER_0_69_193
*16405 FILLER_0_69_20
*16406 FILLER_0_69_205
*16407 FILLER_0_69_217
*16408 FILLER_0_69_223
*16409 FILLER_0_69_225
*16410 FILLER_0_69_237
*16411 FILLER_0_69_249
*16412 FILLER_0_69_261
*16413 FILLER_0_69_273
*16414 FILLER_0_69_279
*16415 FILLER_0_69_281
*16416 FILLER_0_69_293
*16417 FILLER_0_69_3
*16418 FILLER_0_69_305
*16419 FILLER_0_69_317
*16420 FILLER_0_69_329
*16421 FILLER_0_69_335
*16422 FILLER_0_69_337
*16423 FILLER_0_69_349
*16424 FILLER_0_69_361
*16425 FILLER_0_69_373
*16426 FILLER_0_69_385
*16427 FILLER_0_69_391
*16428 FILLER_0_69_393
*16429 FILLER_0_69_405
*16430 FILLER_0_69_417
*16431 FILLER_0_69_429
*16432 FILLER_0_69_441
*16433 FILLER_0_69_447
*16434 FILLER_0_69_449
*16435 FILLER_0_69_46
*16436 FILLER_0_69_461
*16437 FILLER_0_69_473
*16438 FILLER_0_69_485
*16439 FILLER_0_69_497
*16440 FILLER_0_69_50
*16441 FILLER_0_69_503
*16442 FILLER_0_69_505
*16443 FILLER_0_69_517
*16444 FILLER_0_69_529
*16445 FILLER_0_69_541
*16446 FILLER_0_69_553
*16447 FILLER_0_69_559
*16448 FILLER_0_69_561
*16449 FILLER_0_69_57
*16450 FILLER_0_69_573
*16451 FILLER_0_69_585
*16452 FILLER_0_69_597
*16453 FILLER_0_69_609
*16454 FILLER_0_69_615
*16455 FILLER_0_69_617
*16456 FILLER_0_69_629
*16457 FILLER_0_69_641
*16458 FILLER_0_69_653
*16459 FILLER_0_69_665
*16460 FILLER_0_69_671
*16461 FILLER_0_69_673
*16462 FILLER_0_69_685
*16463 FILLER_0_69_697
*16464 FILLER_0_69_709
*16465 FILLER_0_69_721
*16466 FILLER_0_69_727
*16467 FILLER_0_69_729
*16468 FILLER_0_69_741
*16469 FILLER_0_69_753
*16470 FILLER_0_69_765
*16471 FILLER_0_69_777
*16472 FILLER_0_69_783
*16473 FILLER_0_69_785
*16474 FILLER_0_69_797
*16475 FILLER_0_69_809
*16476 FILLER_0_69_821
*16477 FILLER_0_69_833
*16478 FILLER_0_69_839
*16479 FILLER_0_69_841
*16480 FILLER_0_69_853
*16481 FILLER_0_69_865
*16482 FILLER_0_69_877
*16483 FILLER_0_69_889
*16484 FILLER_0_69_895
*16485 FILLER_0_69_897
*16486 FILLER_0_69_9
*16487 FILLER_0_69_909
*16488 FILLER_0_69_921
*16489 FILLER_0_69_933
*16490 FILLER_0_69_945
*16491 FILLER_0_69_951
*16492 FILLER_0_69_953
*16493 FILLER_0_69_965
*16494 FILLER_0_69_977
*16495 FILLER_0_69_98
*16496 FILLER_0_69_989
*16497 FILLER_0_6_1005
*16498 FILLER_0_6_1017
*16499 FILLER_0_6_1029
*16500 FILLER_0_6_1035
*16501 FILLER_0_6_1037
*16502 FILLER_0_6_1049
*16503 FILLER_0_6_1057
*16504 FILLER_0_6_109
*16505 FILLER_0_6_121
*16506 FILLER_0_6_133
*16507 FILLER_0_6_139
*16508 FILLER_0_6_141
*16509 FILLER_0_6_15
*16510 FILLER_0_6_153
*16511 FILLER_0_6_165
*16512 FILLER_0_6_177
*16513 FILLER_0_6_189
*16514 FILLER_0_6_195
*16515 FILLER_0_6_197
*16516 FILLER_0_6_209
*16517 FILLER_0_6_221
*16518 FILLER_0_6_233
*16519 FILLER_0_6_245
*16520 FILLER_0_6_251
*16521 FILLER_0_6_253
*16522 FILLER_0_6_265
*16523 FILLER_0_6_27
*16524 FILLER_0_6_277
*16525 FILLER_0_6_289
*16526 FILLER_0_6_29
*16527 FILLER_0_6_3
*16528 FILLER_0_6_301
*16529 FILLER_0_6_307
*16530 FILLER_0_6_309
*16531 FILLER_0_6_321
*16532 FILLER_0_6_333
*16533 FILLER_0_6_345
*16534 FILLER_0_6_357
*16535 FILLER_0_6_363
*16536 FILLER_0_6_365
*16537 FILLER_0_6_377
*16538 FILLER_0_6_389
*16539 FILLER_0_6_401
*16540 FILLER_0_6_41
*16541 FILLER_0_6_413
*16542 FILLER_0_6_419
*16543 FILLER_0_6_421
*16544 FILLER_0_6_433
*16545 FILLER_0_6_445
*16546 FILLER_0_6_457
*16547 FILLER_0_6_469
*16548 FILLER_0_6_475
*16549 FILLER_0_6_477
*16550 FILLER_0_6_489
*16551 FILLER_0_6_501
*16552 FILLER_0_6_513
*16553 FILLER_0_6_525
*16554 FILLER_0_6_53
*16555 FILLER_0_6_531
*16556 FILLER_0_6_533
*16557 FILLER_0_6_545
*16558 FILLER_0_6_557
*16559 FILLER_0_6_569
*16560 FILLER_0_6_581
*16561 FILLER_0_6_587
*16562 FILLER_0_6_589
*16563 FILLER_0_6_601
*16564 FILLER_0_6_613
*16565 FILLER_0_6_625
*16566 FILLER_0_6_637
*16567 FILLER_0_6_643
*16568 FILLER_0_6_645
*16569 FILLER_0_6_65
*16570 FILLER_0_6_657
*16571 FILLER_0_6_669
*16572 FILLER_0_6_681
*16573 FILLER_0_6_693
*16574 FILLER_0_6_699
*16575 FILLER_0_6_701
*16576 FILLER_0_6_713
*16577 FILLER_0_6_725
*16578 FILLER_0_6_737
*16579 FILLER_0_6_749
*16580 FILLER_0_6_755
*16581 FILLER_0_6_757
*16582 FILLER_0_6_769
*16583 FILLER_0_6_77
*16584 FILLER_0_6_781
*16585 FILLER_0_6_793
*16586 FILLER_0_6_805
*16587 FILLER_0_6_811
*16588 FILLER_0_6_813
*16589 FILLER_0_6_825
*16590 FILLER_0_6_83
*16591 FILLER_0_6_837
*16592 FILLER_0_6_849
*16593 FILLER_0_6_85
*16594 FILLER_0_6_861
*16595 FILLER_0_6_867
*16596 FILLER_0_6_869
*16597 FILLER_0_6_881
*16598 FILLER_0_6_893
*16599 FILLER_0_6_905
*16600 FILLER_0_6_917
*16601 FILLER_0_6_923
*16602 FILLER_0_6_925
*16603 FILLER_0_6_937
*16604 FILLER_0_6_949
*16605 FILLER_0_6_961
*16606 FILLER_0_6_97
*16607 FILLER_0_6_973
*16608 FILLER_0_6_979
*16609 FILLER_0_6_981
*16610 FILLER_0_6_993
*16611 FILLER_0_70_1005
*16612 FILLER_0_70_1017
*16613 FILLER_0_70_1029
*16614 FILLER_0_70_1035
*16615 FILLER_0_70_1037
*16616 FILLER_0_70_1049
*16617 FILLER_0_70_1057
*16618 FILLER_0_70_109
*16619 FILLER_0_70_117
*16620 FILLER_0_70_124
*16621 FILLER_0_70_136
*16622 FILLER_0_70_141
*16623 FILLER_0_70_157
*16624 FILLER_0_70_169
*16625 FILLER_0_70_175
*16626 FILLER_0_70_183
*16627 FILLER_0_70_195
*16628 FILLER_0_70_197
*16629 FILLER_0_70_209
*16630 FILLER_0_70_221
*16631 FILLER_0_70_233
*16632 FILLER_0_70_24
*16633 FILLER_0_70_245
*16634 FILLER_0_70_251
*16635 FILLER_0_70_253
*16636 FILLER_0_70_265
*16637 FILLER_0_70_277
*16638 FILLER_0_70_289
*16639 FILLER_0_70_29
*16640 FILLER_0_70_3
*16641 FILLER_0_70_301
*16642 FILLER_0_70_307
*16643 FILLER_0_70_309
*16644 FILLER_0_70_321
*16645 FILLER_0_70_33
*16646 FILLER_0_70_333
*16647 FILLER_0_70_345
*16648 FILLER_0_70_357
*16649 FILLER_0_70_363
*16650 FILLER_0_70_365
*16651 FILLER_0_70_377
*16652 FILLER_0_70_389
*16653 FILLER_0_70_401
*16654 FILLER_0_70_413
*16655 FILLER_0_70_419
*16656 FILLER_0_70_421
*16657 FILLER_0_70_433
*16658 FILLER_0_70_44
*16659 FILLER_0_70_445
*16660 FILLER_0_70_457
*16661 FILLER_0_70_469
*16662 FILLER_0_70_475
*16663 FILLER_0_70_477
*16664 FILLER_0_70_489
*16665 FILLER_0_70_501
*16666 FILLER_0_70_513
*16667 FILLER_0_70_525
*16668 FILLER_0_70_531
*16669 FILLER_0_70_533
*16670 FILLER_0_70_545
*16671 FILLER_0_70_557
*16672 FILLER_0_70_56
*16673 FILLER_0_70_569
*16674 FILLER_0_70_581
*16675 FILLER_0_70_587
*16676 FILLER_0_70_589
*16677 FILLER_0_70_601
*16678 FILLER_0_70_613
*16679 FILLER_0_70_625
*16680 FILLER_0_70_637
*16681 FILLER_0_70_643
*16682 FILLER_0_70_645
*16683 FILLER_0_70_657
*16684 FILLER_0_70_669
*16685 FILLER_0_70_681
*16686 FILLER_0_70_693
*16687 FILLER_0_70_699
*16688 FILLER_0_70_701
*16689 FILLER_0_70_71
*16690 FILLER_0_70_713
*16691 FILLER_0_70_725
*16692 FILLER_0_70_737
*16693 FILLER_0_70_749
*16694 FILLER_0_70_755
*16695 FILLER_0_70_757
*16696 FILLER_0_70_769
*16697 FILLER_0_70_781
*16698 FILLER_0_70_793
*16699 FILLER_0_70_805
*16700 FILLER_0_70_811
*16701 FILLER_0_70_813
*16702 FILLER_0_70_825
*16703 FILLER_0_70_837
*16704 FILLER_0_70_849
*16705 FILLER_0_70_85
*16706 FILLER_0_70_861
*16707 FILLER_0_70_867
*16708 FILLER_0_70_869
*16709 FILLER_0_70_881
*16710 FILLER_0_70_893
*16711 FILLER_0_70_905
*16712 FILLER_0_70_917
*16713 FILLER_0_70_923
*16714 FILLER_0_70_925
*16715 FILLER_0_70_937
*16716 FILLER_0_70_949
*16717 FILLER_0_70_961
*16718 FILLER_0_70_973
*16719 FILLER_0_70_979
*16720 FILLER_0_70_981
*16721 FILLER_0_70_993
*16722 FILLER_0_71_1001
*16723 FILLER_0_71_1007
*16724 FILLER_0_71_1009
*16725 FILLER_0_71_1021
*16726 FILLER_0_71_1033
*16727 FILLER_0_71_104
*16728 FILLER_0_71_1045
*16729 FILLER_0_71_1057
*16730 FILLER_0_71_113
*16731 FILLER_0_71_131
*16732 FILLER_0_71_143
*16733 FILLER_0_71_15
*16734 FILLER_0_71_157
*16735 FILLER_0_71_187
*16736 FILLER_0_71_199
*16737 FILLER_0_71_211
*16738 FILLER_0_71_223
*16739 FILLER_0_71_225
*16740 FILLER_0_71_237
*16741 FILLER_0_71_249
*16742 FILLER_0_71_261
*16743 FILLER_0_71_27
*16744 FILLER_0_71_273
*16745 FILLER_0_71_279
*16746 FILLER_0_71_281
*16747 FILLER_0_71_293
*16748 FILLER_0_71_3
*16749 FILLER_0_71_305
*16750 FILLER_0_71_317
*16751 FILLER_0_71_329
*16752 FILLER_0_71_335
*16753 FILLER_0_71_337
*16754 FILLER_0_71_349
*16755 FILLER_0_71_361
*16756 FILLER_0_71_373
*16757 FILLER_0_71_385
*16758 FILLER_0_71_39
*16759 FILLER_0_71_391
*16760 FILLER_0_71_393
*16761 FILLER_0_71_405
*16762 FILLER_0_71_417
*16763 FILLER_0_71_429
*16764 FILLER_0_71_441
*16765 FILLER_0_71_447
*16766 FILLER_0_71_449
*16767 FILLER_0_71_461
*16768 FILLER_0_71_473
*16769 FILLER_0_71_485
*16770 FILLER_0_71_497
*16771 FILLER_0_71_503
*16772 FILLER_0_71_505
*16773 FILLER_0_71_517
*16774 FILLER_0_71_529
*16775 FILLER_0_71_541
*16776 FILLER_0_71_553
*16777 FILLER_0_71_559
*16778 FILLER_0_71_561
*16779 FILLER_0_71_573
*16780 FILLER_0_71_585
*16781 FILLER_0_71_597
*16782 FILLER_0_71_609
*16783 FILLER_0_71_615
*16784 FILLER_0_71_617
*16785 FILLER_0_71_629
*16786 FILLER_0_71_641
*16787 FILLER_0_71_653
*16788 FILLER_0_71_665
*16789 FILLER_0_71_671
*16790 FILLER_0_71_673
*16791 FILLER_0_71_685
*16792 FILLER_0_71_697
*16793 FILLER_0_71_709
*16794 FILLER_0_71_721
*16795 FILLER_0_71_727
*16796 FILLER_0_71_729
*16797 FILLER_0_71_741
*16798 FILLER_0_71_753
*16799 FILLER_0_71_765
*16800 FILLER_0_71_777
*16801 FILLER_0_71_783
*16802 FILLER_0_71_785
*16803 FILLER_0_71_797
*16804 FILLER_0_71_809
*16805 FILLER_0_71_81
*16806 FILLER_0_71_821
*16807 FILLER_0_71_833
*16808 FILLER_0_71_839
*16809 FILLER_0_71_841
*16810 FILLER_0_71_853
*16811 FILLER_0_71_865
*16812 FILLER_0_71_877
*16813 FILLER_0_71_889
*16814 FILLER_0_71_89
*16815 FILLER_0_71_895
*16816 FILLER_0_71_897
*16817 FILLER_0_71_909
*16818 FILLER_0_71_921
*16819 FILLER_0_71_933
*16820 FILLER_0_71_945
*16821 FILLER_0_71_951
*16822 FILLER_0_71_953
*16823 FILLER_0_71_965
*16824 FILLER_0_71_977
*16825 FILLER_0_71_989
*16826 FILLER_0_72_1005
*16827 FILLER_0_72_1017
*16828 FILLER_0_72_1029
*16829 FILLER_0_72_1035
*16830 FILLER_0_72_1037
*16831 FILLER_0_72_1049
*16832 FILLER_0_72_105
*16833 FILLER_0_72_1057
*16834 FILLER_0_72_117
*16835 FILLER_0_72_137
*16836 FILLER_0_72_141
*16837 FILLER_0_72_15
*16838 FILLER_0_72_153
*16839 FILLER_0_72_165
*16840 FILLER_0_72_173
*16841 FILLER_0_72_179
*16842 FILLER_0_72_191
*16843 FILLER_0_72_195
*16844 FILLER_0_72_197
*16845 FILLER_0_72_209
*16846 FILLER_0_72_221
*16847 FILLER_0_72_233
*16848 FILLER_0_72_245
*16849 FILLER_0_72_251
*16850 FILLER_0_72_253
*16851 FILLER_0_72_265
*16852 FILLER_0_72_27
*16853 FILLER_0_72_277
*16854 FILLER_0_72_289
*16855 FILLER_0_72_3
*16856 FILLER_0_72_301
*16857 FILLER_0_72_307
*16858 FILLER_0_72_309
*16859 FILLER_0_72_321
*16860 FILLER_0_72_333
*16861 FILLER_0_72_345
*16862 FILLER_0_72_35
*16863 FILLER_0_72_357
*16864 FILLER_0_72_363
*16865 FILLER_0_72_365
*16866 FILLER_0_72_377
*16867 FILLER_0_72_389
*16868 FILLER_0_72_39
*16869 FILLER_0_72_401
*16870 FILLER_0_72_413
*16871 FILLER_0_72_419
*16872 FILLER_0_72_421
*16873 FILLER_0_72_433
*16874 FILLER_0_72_445
*16875 FILLER_0_72_457
*16876 FILLER_0_72_469
*16877 FILLER_0_72_47
*16878 FILLER_0_72_475
*16879 FILLER_0_72_477
*16880 FILLER_0_72_489
*16881 FILLER_0_72_501
*16882 FILLER_0_72_513
*16883 FILLER_0_72_525
*16884 FILLER_0_72_53
*16885 FILLER_0_72_531
*16886 FILLER_0_72_533
*16887 FILLER_0_72_545
*16888 FILLER_0_72_557
*16889 FILLER_0_72_569
*16890 FILLER_0_72_581
*16891 FILLER_0_72_587
*16892 FILLER_0_72_589
*16893 FILLER_0_72_601
*16894 FILLER_0_72_613
*16895 FILLER_0_72_625
*16896 FILLER_0_72_637
*16897 FILLER_0_72_643
*16898 FILLER_0_72_645
*16899 FILLER_0_72_657
*16900 FILLER_0_72_669
*16901 FILLER_0_72_681
*16902 FILLER_0_72_693
*16903 FILLER_0_72_699
*16904 FILLER_0_72_70
*16905 FILLER_0_72_701
*16906 FILLER_0_72_713
*16907 FILLER_0_72_725
*16908 FILLER_0_72_737
*16909 FILLER_0_72_749
*16910 FILLER_0_72_755
*16911 FILLER_0_72_757
*16912 FILLER_0_72_769
*16913 FILLER_0_72_781
*16914 FILLER_0_72_79
*16915 FILLER_0_72_793
*16916 FILLER_0_72_805
*16917 FILLER_0_72_811
*16918 FILLER_0_72_813
*16919 FILLER_0_72_825
*16920 FILLER_0_72_83
*16921 FILLER_0_72_837
*16922 FILLER_0_72_849
*16923 FILLER_0_72_861
*16924 FILLER_0_72_867
*16925 FILLER_0_72_869
*16926 FILLER_0_72_881
*16927 FILLER_0_72_893
*16928 FILLER_0_72_905
*16929 FILLER_0_72_917
*16930 FILLER_0_72_923
*16931 FILLER_0_72_925
*16932 FILLER_0_72_93
*16933 FILLER_0_72_937
*16934 FILLER_0_72_949
*16935 FILLER_0_72_961
*16936 FILLER_0_72_973
*16937 FILLER_0_72_979
*16938 FILLER_0_72_981
*16939 FILLER_0_72_993
*16940 FILLER_0_73_1001
*16941 FILLER_0_73_1007
*16942 FILLER_0_73_1009
*16943 FILLER_0_73_1021
*16944 FILLER_0_73_1033
*16945 FILLER_0_73_1045
*16946 FILLER_0_73_1057
*16947 FILLER_0_73_110
*16948 FILLER_0_73_120
*16949 FILLER_0_73_124
*16950 FILLER_0_73_137
*16951 FILLER_0_73_141
*16952 FILLER_0_73_147
*16953 FILLER_0_73_15
*16954 FILLER_0_73_161
*16955 FILLER_0_73_167
*16956 FILLER_0_73_169
*16957 FILLER_0_73_173
*16958 FILLER_0_73_180
*16959 FILLER_0_73_192
*16960 FILLER_0_73_204
*16961 FILLER_0_73_216
*16962 FILLER_0_73_22
*16963 FILLER_0_73_225
*16964 FILLER_0_73_237
*16965 FILLER_0_73_249
*16966 FILLER_0_73_26
*16967 FILLER_0_73_261
*16968 FILLER_0_73_273
*16969 FILLER_0_73_279
*16970 FILLER_0_73_281
*16971 FILLER_0_73_293
*16972 FILLER_0_73_3
*16973 FILLER_0_73_305
*16974 FILLER_0_73_317
*16975 FILLER_0_73_329
*16976 FILLER_0_73_335
*16977 FILLER_0_73_337
*16978 FILLER_0_73_349
*16979 FILLER_0_73_36
*16980 FILLER_0_73_361
*16981 FILLER_0_73_373
*16982 FILLER_0_73_385
*16983 FILLER_0_73_391
*16984 FILLER_0_73_393
*16985 FILLER_0_73_405
*16986 FILLER_0_73_417
*16987 FILLER_0_73_429
*16988 FILLER_0_73_441
*16989 FILLER_0_73_447
*16990 FILLER_0_73_449
*16991 FILLER_0_73_461
*16992 FILLER_0_73_473
*16993 FILLER_0_73_48
*16994 FILLER_0_73_485
*16995 FILLER_0_73_497
*16996 FILLER_0_73_503
*16997 FILLER_0_73_505
*16998 FILLER_0_73_517
*16999 FILLER_0_73_529
*17000 FILLER_0_73_541
*17001 FILLER_0_73_553
*17002 FILLER_0_73_559
*17003 FILLER_0_73_561
*17004 FILLER_0_73_57
*17005 FILLER_0_73_573
*17006 FILLER_0_73_585
*17007 FILLER_0_73_597
*17008 FILLER_0_73_609
*17009 FILLER_0_73_61
*17010 FILLER_0_73_615
*17011 FILLER_0_73_617
*17012 FILLER_0_73_629
*17013 FILLER_0_73_641
*17014 FILLER_0_73_653
*17015 FILLER_0_73_665
*17016 FILLER_0_73_671
*17017 FILLER_0_73_673
*17018 FILLER_0_73_685
*17019 FILLER_0_73_697
*17020 FILLER_0_73_709
*17021 FILLER_0_73_71
*17022 FILLER_0_73_721
*17023 FILLER_0_73_727
*17024 FILLER_0_73_729
*17025 FILLER_0_73_741
*17026 FILLER_0_73_753
*17027 FILLER_0_73_765
*17028 FILLER_0_73_777
*17029 FILLER_0_73_783
*17030 FILLER_0_73_785
*17031 FILLER_0_73_797
*17032 FILLER_0_73_809
*17033 FILLER_0_73_81
*17034 FILLER_0_73_821
*17035 FILLER_0_73_833
*17036 FILLER_0_73_839
*17037 FILLER_0_73_841
*17038 FILLER_0_73_853
*17039 FILLER_0_73_865
*17040 FILLER_0_73_877
*17041 FILLER_0_73_889
*17042 FILLER_0_73_895
*17043 FILLER_0_73_897
*17044 FILLER_0_73_909
*17045 FILLER_0_73_921
*17046 FILLER_0_73_933
*17047 FILLER_0_73_945
*17048 FILLER_0_73_951
*17049 FILLER_0_73_953
*17050 FILLER_0_73_965
*17051 FILLER_0_73_977
*17052 FILLER_0_73_989
*17053 FILLER_0_74_1005
*17054 FILLER_0_74_1017
*17055 FILLER_0_74_1029
*17056 FILLER_0_74_1035
*17057 FILLER_0_74_1037
*17058 FILLER_0_74_1049
*17059 FILLER_0_74_1057
*17060 FILLER_0_74_108
*17061 FILLER_0_74_114
*17062 FILLER_0_74_128
*17063 FILLER_0_74_141
*17064 FILLER_0_74_153
*17065 FILLER_0_74_165
*17066 FILLER_0_74_173
*17067 FILLER_0_74_188
*17068 FILLER_0_74_19
*17069 FILLER_0_74_197
*17070 FILLER_0_74_209
*17071 FILLER_0_74_221
*17072 FILLER_0_74_233
*17073 FILLER_0_74_245
*17074 FILLER_0_74_251
*17075 FILLER_0_74_253
*17076 FILLER_0_74_265
*17077 FILLER_0_74_277
*17078 FILLER_0_74_289
*17079 FILLER_0_74_301
*17080 FILLER_0_74_307
*17081 FILLER_0_74_309
*17082 FILLER_0_74_321
*17083 FILLER_0_74_333
*17084 FILLER_0_74_345
*17085 FILLER_0_74_357
*17086 FILLER_0_74_363
*17087 FILLER_0_74_365
*17088 FILLER_0_74_377
*17089 FILLER_0_74_389
*17090 FILLER_0_74_401
*17091 FILLER_0_74_413
*17092 FILLER_0_74_419
*17093 FILLER_0_74_421
*17094 FILLER_0_74_433
*17095 FILLER_0_74_445
*17096 FILLER_0_74_45
*17097 FILLER_0_74_457
*17098 FILLER_0_74_469
*17099 FILLER_0_74_475
*17100 FILLER_0_74_477
*17101 FILLER_0_74_489
*17102 FILLER_0_74_50
*17103 FILLER_0_74_501
*17104 FILLER_0_74_513
*17105 FILLER_0_74_525
*17106 FILLER_0_74_531
*17107 FILLER_0_74_533
*17108 FILLER_0_74_545
*17109 FILLER_0_74_557
*17110 FILLER_0_74_569
*17111 FILLER_0_74_581
*17112 FILLER_0_74_587
*17113 FILLER_0_74_589
*17114 FILLER_0_74_601
*17115 FILLER_0_74_613
*17116 FILLER_0_74_625
*17117 FILLER_0_74_637
*17118 FILLER_0_74_643
*17119 FILLER_0_74_645
*17120 FILLER_0_74_657
*17121 FILLER_0_74_669
*17122 FILLER_0_74_681
*17123 FILLER_0_74_693
*17124 FILLER_0_74_699
*17125 FILLER_0_74_701
*17126 FILLER_0_74_713
*17127 FILLER_0_74_725
*17128 FILLER_0_74_737
*17129 FILLER_0_74_749
*17130 FILLER_0_74_755
*17131 FILLER_0_74_757
*17132 FILLER_0_74_769
*17133 FILLER_0_74_781
*17134 FILLER_0_74_793
*17135 FILLER_0_74_80
*17136 FILLER_0_74_805
*17137 FILLER_0_74_811
*17138 FILLER_0_74_813
*17139 FILLER_0_74_825
*17140 FILLER_0_74_837
*17141 FILLER_0_74_849
*17142 FILLER_0_74_861
*17143 FILLER_0_74_867
*17144 FILLER_0_74_869
*17145 FILLER_0_74_881
*17146 FILLER_0_74_893
*17147 FILLER_0_74_905
*17148 FILLER_0_74_917
*17149 FILLER_0_74_923
*17150 FILLER_0_74_925
*17151 FILLER_0_74_937
*17152 FILLER_0_74_949
*17153 FILLER_0_74_96
*17154 FILLER_0_74_961
*17155 FILLER_0_74_973
*17156 FILLER_0_74_979
*17157 FILLER_0_74_981
*17158 FILLER_0_74_993
*17159 FILLER_0_75_1001
*17160 FILLER_0_75_1007
*17161 FILLER_0_75_1009
*17162 FILLER_0_75_1021
*17163 FILLER_0_75_1033
*17164 FILLER_0_75_1045
*17165 FILLER_0_75_105
*17166 FILLER_0_75_1057
*17167 FILLER_0_75_111
*17168 FILLER_0_75_113
*17169 FILLER_0_75_125
*17170 FILLER_0_75_137
*17171 FILLER_0_75_148
*17172 FILLER_0_75_15
*17173 FILLER_0_75_155
*17174 FILLER_0_75_167
*17175 FILLER_0_75_169
*17176 FILLER_0_75_191
*17177 FILLER_0_75_203
*17178 FILLER_0_75_215
*17179 FILLER_0_75_223
*17180 FILLER_0_75_225
*17181 FILLER_0_75_237
*17182 FILLER_0_75_249
*17183 FILLER_0_75_261
*17184 FILLER_0_75_273
*17185 FILLER_0_75_279
*17186 FILLER_0_75_281
*17187 FILLER_0_75_29
*17188 FILLER_0_75_293
*17189 FILLER_0_75_3
*17190 FILLER_0_75_305
*17191 FILLER_0_75_317
*17192 FILLER_0_75_329
*17193 FILLER_0_75_335
*17194 FILLER_0_75_337
*17195 FILLER_0_75_349
*17196 FILLER_0_75_361
*17197 FILLER_0_75_373
*17198 FILLER_0_75_385
*17199 FILLER_0_75_391
*17200 FILLER_0_75_393
*17201 FILLER_0_75_405
*17202 FILLER_0_75_417
*17203 FILLER_0_75_429
*17204 FILLER_0_75_441
*17205 FILLER_0_75_447
*17206 FILLER_0_75_449
*17207 FILLER_0_75_461
*17208 FILLER_0_75_473
*17209 FILLER_0_75_485
*17210 FILLER_0_75_497
*17211 FILLER_0_75_503
*17212 FILLER_0_75_505
*17213 FILLER_0_75_517
*17214 FILLER_0_75_529
*17215 FILLER_0_75_54
*17216 FILLER_0_75_541
*17217 FILLER_0_75_553
*17218 FILLER_0_75_559
*17219 FILLER_0_75_561
*17220 FILLER_0_75_573
*17221 FILLER_0_75_585
*17222 FILLER_0_75_597
*17223 FILLER_0_75_609
*17224 FILLER_0_75_615
*17225 FILLER_0_75_617
*17226 FILLER_0_75_629
*17227 FILLER_0_75_641
*17228 FILLER_0_75_653
*17229 FILLER_0_75_665
*17230 FILLER_0_75_671
*17231 FILLER_0_75_673
*17232 FILLER_0_75_685
*17233 FILLER_0_75_697
*17234 FILLER_0_75_709
*17235 FILLER_0_75_721
*17236 FILLER_0_75_727
*17237 FILLER_0_75_729
*17238 FILLER_0_75_741
*17239 FILLER_0_75_753
*17240 FILLER_0_75_765
*17241 FILLER_0_75_777
*17242 FILLER_0_75_783
*17243 FILLER_0_75_785
*17244 FILLER_0_75_797
*17245 FILLER_0_75_809
*17246 FILLER_0_75_82
*17247 FILLER_0_75_821
*17248 FILLER_0_75_833
*17249 FILLER_0_75_839
*17250 FILLER_0_75_841
*17251 FILLER_0_75_853
*17252 FILLER_0_75_865
*17253 FILLER_0_75_877
*17254 FILLER_0_75_889
*17255 FILLER_0_75_895
*17256 FILLER_0_75_897
*17257 FILLER_0_75_909
*17258 FILLER_0_75_921
*17259 FILLER_0_75_933
*17260 FILLER_0_75_94
*17261 FILLER_0_75_945
*17262 FILLER_0_75_951
*17263 FILLER_0_75_953
*17264 FILLER_0_75_965
*17265 FILLER_0_75_977
*17266 FILLER_0_75_989
*17267 FILLER_0_76_1005
*17268 FILLER_0_76_1017
*17269 FILLER_0_76_1029
*17270 FILLER_0_76_1035
*17271 FILLER_0_76_1037
*17272 FILLER_0_76_1049
*17273 FILLER_0_76_105
*17274 FILLER_0_76_1057
*17275 FILLER_0_76_141
*17276 FILLER_0_76_15
*17277 FILLER_0_76_151
*17278 FILLER_0_76_163
*17279 FILLER_0_76_167
*17280 FILLER_0_76_176
*17281 FILLER_0_76_19
*17282 FILLER_0_76_192
*17283 FILLER_0_76_197
*17284 FILLER_0_76_209
*17285 FILLER_0_76_221
*17286 FILLER_0_76_233
*17287 FILLER_0_76_245
*17288 FILLER_0_76_251
*17289 FILLER_0_76_253
*17290 FILLER_0_76_265
*17291 FILLER_0_76_277
*17292 FILLER_0_76_289
*17293 FILLER_0_76_3
*17294 FILLER_0_76_301
*17295 FILLER_0_76_307
*17296 FILLER_0_76_309
*17297 FILLER_0_76_321
*17298 FILLER_0_76_333
*17299 FILLER_0_76_345
*17300 FILLER_0_76_357
*17301 FILLER_0_76_363
*17302 FILLER_0_76_365
*17303 FILLER_0_76_37
*17304 FILLER_0_76_377
*17305 FILLER_0_76_389
*17306 FILLER_0_76_401
*17307 FILLER_0_76_413
*17308 FILLER_0_76_419
*17309 FILLER_0_76_421
*17310 FILLER_0_76_433
*17311 FILLER_0_76_445
*17312 FILLER_0_76_457
*17313 FILLER_0_76_469
*17314 FILLER_0_76_475
*17315 FILLER_0_76_477
*17316 FILLER_0_76_489
*17317 FILLER_0_76_501
*17318 FILLER_0_76_513
*17319 FILLER_0_76_525
*17320 FILLER_0_76_53
*17321 FILLER_0_76_531
*17322 FILLER_0_76_533
*17323 FILLER_0_76_545
*17324 FILLER_0_76_557
*17325 FILLER_0_76_569
*17326 FILLER_0_76_581
*17327 FILLER_0_76_587
*17328 FILLER_0_76_589
*17329 FILLER_0_76_601
*17330 FILLER_0_76_613
*17331 FILLER_0_76_625
*17332 FILLER_0_76_637
*17333 FILLER_0_76_643
*17334 FILLER_0_76_645
*17335 FILLER_0_76_65
*17336 FILLER_0_76_657
*17337 FILLER_0_76_669
*17338 FILLER_0_76_681
*17339 FILLER_0_76_693
*17340 FILLER_0_76_699
*17341 FILLER_0_76_7
*17342 FILLER_0_76_701
*17343 FILLER_0_76_713
*17344 FILLER_0_76_725
*17345 FILLER_0_76_737
*17346 FILLER_0_76_749
*17347 FILLER_0_76_755
*17348 FILLER_0_76_757
*17349 FILLER_0_76_769
*17350 FILLER_0_76_77
*17351 FILLER_0_76_781
*17352 FILLER_0_76_793
*17353 FILLER_0_76_805
*17354 FILLER_0_76_811
*17355 FILLER_0_76_813
*17356 FILLER_0_76_825
*17357 FILLER_0_76_83
*17358 FILLER_0_76_837
*17359 FILLER_0_76_849
*17360 FILLER_0_76_85
*17361 FILLER_0_76_861
*17362 FILLER_0_76_867
*17363 FILLER_0_76_869
*17364 FILLER_0_76_881
*17365 FILLER_0_76_893
*17366 FILLER_0_76_905
*17367 FILLER_0_76_917
*17368 FILLER_0_76_923
*17369 FILLER_0_76_925
*17370 FILLER_0_76_93
*17371 FILLER_0_76_937
*17372 FILLER_0_76_949
*17373 FILLER_0_76_961
*17374 FILLER_0_76_973
*17375 FILLER_0_76_979
*17376 FILLER_0_76_981
*17377 FILLER_0_76_993
*17378 FILLER_0_77_1001
*17379 FILLER_0_77_1007
*17380 FILLER_0_77_1009
*17381 FILLER_0_77_1021
*17382 FILLER_0_77_1033
*17383 FILLER_0_77_1045
*17384 FILLER_0_77_1057
*17385 FILLER_0_77_111
*17386 FILLER_0_77_113
*17387 FILLER_0_77_131
*17388 FILLER_0_77_137
*17389 FILLER_0_77_15
*17390 FILLER_0_77_162
*17391 FILLER_0_77_166
*17392 FILLER_0_77_169
*17393 FILLER_0_77_176
*17394 FILLER_0_77_182
*17395 FILLER_0_77_194
*17396 FILLER_0_77_206
*17397 FILLER_0_77_218
*17398 FILLER_0_77_225
*17399 FILLER_0_77_237
*17400 FILLER_0_77_249
*17401 FILLER_0_77_261
*17402 FILLER_0_77_27
*17403 FILLER_0_77_273
*17404 FILLER_0_77_279
*17405 FILLER_0_77_281
*17406 FILLER_0_77_293
*17407 FILLER_0_77_3
*17408 FILLER_0_77_305
*17409 FILLER_0_77_317
*17410 FILLER_0_77_329
*17411 FILLER_0_77_335
*17412 FILLER_0_77_337
*17413 FILLER_0_77_349
*17414 FILLER_0_77_361
*17415 FILLER_0_77_373
*17416 FILLER_0_77_385
*17417 FILLER_0_77_391
*17418 FILLER_0_77_393
*17419 FILLER_0_77_40
*17420 FILLER_0_77_405
*17421 FILLER_0_77_417
*17422 FILLER_0_77_429
*17423 FILLER_0_77_441
*17424 FILLER_0_77_447
*17425 FILLER_0_77_449
*17426 FILLER_0_77_461
*17427 FILLER_0_77_473
*17428 FILLER_0_77_485
*17429 FILLER_0_77_497
*17430 FILLER_0_77_503
*17431 FILLER_0_77_505
*17432 FILLER_0_77_517
*17433 FILLER_0_77_52
*17434 FILLER_0_77_529
*17435 FILLER_0_77_541
*17436 FILLER_0_77_553
*17437 FILLER_0_77_559
*17438 FILLER_0_77_561
*17439 FILLER_0_77_573
*17440 FILLER_0_77_585
*17441 FILLER_0_77_597
*17442 FILLER_0_77_609
*17443 FILLER_0_77_615
*17444 FILLER_0_77_617
*17445 FILLER_0_77_629
*17446 FILLER_0_77_63
*17447 FILLER_0_77_641
*17448 FILLER_0_77_653
*17449 FILLER_0_77_665
*17450 FILLER_0_77_671
*17451 FILLER_0_77_673
*17452 FILLER_0_77_685
*17453 FILLER_0_77_69
*17454 FILLER_0_77_697
*17455 FILLER_0_77_709
*17456 FILLER_0_77_721
*17457 FILLER_0_77_727
*17458 FILLER_0_77_729
*17459 FILLER_0_77_741
*17460 FILLER_0_77_75
*17461 FILLER_0_77_753
*17462 FILLER_0_77_765
*17463 FILLER_0_77_777
*17464 FILLER_0_77_783
*17465 FILLER_0_77_785
*17466 FILLER_0_77_797
*17467 FILLER_0_77_809
*17468 FILLER_0_77_821
*17469 FILLER_0_77_833
*17470 FILLER_0_77_839
*17471 FILLER_0_77_841
*17472 FILLER_0_77_853
*17473 FILLER_0_77_865
*17474 FILLER_0_77_87
*17475 FILLER_0_77_877
*17476 FILLER_0_77_889
*17477 FILLER_0_77_895
*17478 FILLER_0_77_897
*17479 FILLER_0_77_909
*17480 FILLER_0_77_921
*17481 FILLER_0_77_933
*17482 FILLER_0_77_945
*17483 FILLER_0_77_951
*17484 FILLER_0_77_953
*17485 FILLER_0_77_965
*17486 FILLER_0_77_977
*17487 FILLER_0_77_989
*17488 FILLER_0_78_1005
*17489 FILLER_0_78_1017
*17490 FILLER_0_78_1029
*17491 FILLER_0_78_1035
*17492 FILLER_0_78_1037
*17493 FILLER_0_78_1049
*17494 FILLER_0_78_105
*17495 FILLER_0_78_1057
*17496 FILLER_0_78_133
*17497 FILLER_0_78_139
*17498 FILLER_0_78_141
*17499 FILLER_0_78_15
*17500 FILLER_0_78_153
*17501 FILLER_0_78_157
*17502 FILLER_0_78_174
*17503 FILLER_0_78_186
*17504 FILLER_0_78_194
*17505 FILLER_0_78_197
*17506 FILLER_0_78_209
*17507 FILLER_0_78_221
*17508 FILLER_0_78_233
*17509 FILLER_0_78_245
*17510 FILLER_0_78_25
*17511 FILLER_0_78_251
*17512 FILLER_0_78_253
*17513 FILLER_0_78_265
*17514 FILLER_0_78_277
*17515 FILLER_0_78_289
*17516 FILLER_0_78_29
*17517 FILLER_0_78_301
*17518 FILLER_0_78_307
*17519 FILLER_0_78_309
*17520 FILLER_0_78_321
*17521 FILLER_0_78_333
*17522 FILLER_0_78_345
*17523 FILLER_0_78_357
*17524 FILLER_0_78_363
*17525 FILLER_0_78_365
*17526 FILLER_0_78_377
*17527 FILLER_0_78_389
*17528 FILLER_0_78_401
*17529 FILLER_0_78_41
*17530 FILLER_0_78_413
*17531 FILLER_0_78_419
*17532 FILLER_0_78_421
*17533 FILLER_0_78_433
*17534 FILLER_0_78_445
*17535 FILLER_0_78_457
*17536 FILLER_0_78_469
*17537 FILLER_0_78_475
*17538 FILLER_0_78_477
*17539 FILLER_0_78_489
*17540 FILLER_0_78_49
*17541 FILLER_0_78_501
*17542 FILLER_0_78_513
*17543 FILLER_0_78_525
*17544 FILLER_0_78_531
*17545 FILLER_0_78_533
*17546 FILLER_0_78_545
*17547 FILLER_0_78_557
*17548 FILLER_0_78_569
*17549 FILLER_0_78_581
*17550 FILLER_0_78_587
*17551 FILLER_0_78_589
*17552 FILLER_0_78_601
*17553 FILLER_0_78_613
*17554 FILLER_0_78_625
*17555 FILLER_0_78_637
*17556 FILLER_0_78_643
*17557 FILLER_0_78_645
*17558 FILLER_0_78_657
*17559 FILLER_0_78_669
*17560 FILLER_0_78_681
*17561 FILLER_0_78_693
*17562 FILLER_0_78_699
*17563 FILLER_0_78_7
*17564 FILLER_0_78_701
*17565 FILLER_0_78_713
*17566 FILLER_0_78_725
*17567 FILLER_0_78_737
*17568 FILLER_0_78_749
*17569 FILLER_0_78_755
*17570 FILLER_0_78_757
*17571 FILLER_0_78_769
*17572 FILLER_0_78_781
*17573 FILLER_0_78_793
*17574 FILLER_0_78_805
*17575 FILLER_0_78_811
*17576 FILLER_0_78_813
*17577 FILLER_0_78_82
*17578 FILLER_0_78_825
*17579 FILLER_0_78_837
*17580 FILLER_0_78_849
*17581 FILLER_0_78_861
*17582 FILLER_0_78_867
*17583 FILLER_0_78_869
*17584 FILLER_0_78_881
*17585 FILLER_0_78_893
*17586 FILLER_0_78_905
*17587 FILLER_0_78_917
*17588 FILLER_0_78_923
*17589 FILLER_0_78_925
*17590 FILLER_0_78_937
*17591 FILLER_0_78_949
*17592 FILLER_0_78_961
*17593 FILLER_0_78_973
*17594 FILLER_0_78_979
*17595 FILLER_0_78_981
*17596 FILLER_0_78_993
*17597 FILLER_0_79_1001
*17598 FILLER_0_79_1007
*17599 FILLER_0_79_1009
*17600 FILLER_0_79_1021
*17601 FILLER_0_79_1033
*17602 FILLER_0_79_1045
*17603 FILLER_0_79_1057
*17604 FILLER_0_79_106
*17605 FILLER_0_79_113
*17606 FILLER_0_79_125
*17607 FILLER_0_79_137
*17608 FILLER_0_79_149
*17609 FILLER_0_79_155
*17610 FILLER_0_79_164
*17611 FILLER_0_79_169
*17612 FILLER_0_79_181
*17613 FILLER_0_79_19
*17614 FILLER_0_79_193
*17615 FILLER_0_79_205
*17616 FILLER_0_79_217
*17617 FILLER_0_79_223
*17618 FILLER_0_79_225
*17619 FILLER_0_79_237
*17620 FILLER_0_79_249
*17621 FILLER_0_79_261
*17622 FILLER_0_79_273
*17623 FILLER_0_79_279
*17624 FILLER_0_79_281
*17625 FILLER_0_79_29
*17626 FILLER_0_79_293
*17627 FILLER_0_79_305
*17628 FILLER_0_79_317
*17629 FILLER_0_79_329
*17630 FILLER_0_79_335
*17631 FILLER_0_79_337
*17632 FILLER_0_79_349
*17633 FILLER_0_79_361
*17634 FILLER_0_79_373
*17635 FILLER_0_79_385
*17636 FILLER_0_79_391
*17637 FILLER_0_79_393
*17638 FILLER_0_79_405
*17639 FILLER_0_79_417
*17640 FILLER_0_79_429
*17641 FILLER_0_79_441
*17642 FILLER_0_79_447
*17643 FILLER_0_79_449
*17644 FILLER_0_79_461
*17645 FILLER_0_79_473
*17646 FILLER_0_79_485
*17647 FILLER_0_79_497
*17648 FILLER_0_79_503
*17649 FILLER_0_79_505
*17650 FILLER_0_79_517
*17651 FILLER_0_79_529
*17652 FILLER_0_79_53
*17653 FILLER_0_79_541
*17654 FILLER_0_79_553
*17655 FILLER_0_79_559
*17656 FILLER_0_79_561
*17657 FILLER_0_79_57
*17658 FILLER_0_79_573
*17659 FILLER_0_79_585
*17660 FILLER_0_79_597
*17661 FILLER_0_79_609
*17662 FILLER_0_79_615
*17663 FILLER_0_79_617
*17664 FILLER_0_79_629
*17665 FILLER_0_79_641
*17666 FILLER_0_79_653
*17667 FILLER_0_79_665
*17668 FILLER_0_79_671
*17669 FILLER_0_79_673
*17670 FILLER_0_79_685
*17671 FILLER_0_79_69
*17672 FILLER_0_79_697
*17673 FILLER_0_79_709
*17674 FILLER_0_79_721
*17675 FILLER_0_79_727
*17676 FILLER_0_79_729
*17677 FILLER_0_79_741
*17678 FILLER_0_79_753
*17679 FILLER_0_79_765
*17680 FILLER_0_79_777
*17681 FILLER_0_79_783
*17682 FILLER_0_79_785
*17683 FILLER_0_79_797
*17684 FILLER_0_79_809
*17685 FILLER_0_79_81
*17686 FILLER_0_79_821
*17687 FILLER_0_79_833
*17688 FILLER_0_79_839
*17689 FILLER_0_79_841
*17690 FILLER_0_79_853
*17691 FILLER_0_79_865
*17692 FILLER_0_79_877
*17693 FILLER_0_79_889
*17694 FILLER_0_79_895
*17695 FILLER_0_79_897
*17696 FILLER_0_79_909
*17697 FILLER_0_79_921
*17698 FILLER_0_79_933
*17699 FILLER_0_79_94
*17700 FILLER_0_79_945
*17701 FILLER_0_79_951
*17702 FILLER_0_79_953
*17703 FILLER_0_79_965
*17704 FILLER_0_79_977
*17705 FILLER_0_79_989
*17706 FILLER_0_7_1001
*17707 FILLER_0_7_1007
*17708 FILLER_0_7_1009
*17709 FILLER_0_7_1021
*17710 FILLER_0_7_1033
*17711 FILLER_0_7_1045
*17712 FILLER_0_7_105
*17713 FILLER_0_7_1057
*17714 FILLER_0_7_111
*17715 FILLER_0_7_113
*17716 FILLER_0_7_125
*17717 FILLER_0_7_137
*17718 FILLER_0_7_149
*17719 FILLER_0_7_15
*17720 FILLER_0_7_161
*17721 FILLER_0_7_167
*17722 FILLER_0_7_169
*17723 FILLER_0_7_181
*17724 FILLER_0_7_193
*17725 FILLER_0_7_205
*17726 FILLER_0_7_217
*17727 FILLER_0_7_223
*17728 FILLER_0_7_225
*17729 FILLER_0_7_237
*17730 FILLER_0_7_249
*17731 FILLER_0_7_261
*17732 FILLER_0_7_27
*17733 FILLER_0_7_273
*17734 FILLER_0_7_279
*17735 FILLER_0_7_281
*17736 FILLER_0_7_293
*17737 FILLER_0_7_3
*17738 FILLER_0_7_305
*17739 FILLER_0_7_317
*17740 FILLER_0_7_329
*17741 FILLER_0_7_335
*17742 FILLER_0_7_337
*17743 FILLER_0_7_349
*17744 FILLER_0_7_361
*17745 FILLER_0_7_373
*17746 FILLER_0_7_385
*17747 FILLER_0_7_39
*17748 FILLER_0_7_391
*17749 FILLER_0_7_393
*17750 FILLER_0_7_405
*17751 FILLER_0_7_417
*17752 FILLER_0_7_429
*17753 FILLER_0_7_441
*17754 FILLER_0_7_447
*17755 FILLER_0_7_449
*17756 FILLER_0_7_461
*17757 FILLER_0_7_473
*17758 FILLER_0_7_485
*17759 FILLER_0_7_497
*17760 FILLER_0_7_503
*17761 FILLER_0_7_505
*17762 FILLER_0_7_51
*17763 FILLER_0_7_517
*17764 FILLER_0_7_529
*17765 FILLER_0_7_541
*17766 FILLER_0_7_55
*17767 FILLER_0_7_553
*17768 FILLER_0_7_559
*17769 FILLER_0_7_561
*17770 FILLER_0_7_57
*17771 FILLER_0_7_573
*17772 FILLER_0_7_585
*17773 FILLER_0_7_597
*17774 FILLER_0_7_609
*17775 FILLER_0_7_615
*17776 FILLER_0_7_617
*17777 FILLER_0_7_629
*17778 FILLER_0_7_641
*17779 FILLER_0_7_653
*17780 FILLER_0_7_665
*17781 FILLER_0_7_671
*17782 FILLER_0_7_673
*17783 FILLER_0_7_685
*17784 FILLER_0_7_69
*17785 FILLER_0_7_697
*17786 FILLER_0_7_709
*17787 FILLER_0_7_721
*17788 FILLER_0_7_727
*17789 FILLER_0_7_729
*17790 FILLER_0_7_741
*17791 FILLER_0_7_753
*17792 FILLER_0_7_765
*17793 FILLER_0_7_777
*17794 FILLER_0_7_783
*17795 FILLER_0_7_785
*17796 FILLER_0_7_797
*17797 FILLER_0_7_809
*17798 FILLER_0_7_81
*17799 FILLER_0_7_821
*17800 FILLER_0_7_833
*17801 FILLER_0_7_839
*17802 FILLER_0_7_841
*17803 FILLER_0_7_853
*17804 FILLER_0_7_865
*17805 FILLER_0_7_877
*17806 FILLER_0_7_889
*17807 FILLER_0_7_895
*17808 FILLER_0_7_897
*17809 FILLER_0_7_909
*17810 FILLER_0_7_921
*17811 FILLER_0_7_93
*17812 FILLER_0_7_933
*17813 FILLER_0_7_945
*17814 FILLER_0_7_951
*17815 FILLER_0_7_953
*17816 FILLER_0_7_965
*17817 FILLER_0_7_977
*17818 FILLER_0_7_989
*17819 FILLER_0_80_1005
*17820 FILLER_0_80_1017
*17821 FILLER_0_80_1029
*17822 FILLER_0_80_1035
*17823 FILLER_0_80_1037
*17824 FILLER_0_80_1049
*17825 FILLER_0_80_1057
*17826 FILLER_0_80_115
*17827 FILLER_0_80_127
*17828 FILLER_0_80_139
*17829 FILLER_0_80_15
*17830 FILLER_0_80_157
*17831 FILLER_0_80_169
*17832 FILLER_0_80_184
*17833 FILLER_0_80_197
*17834 FILLER_0_80_209
*17835 FILLER_0_80_221
*17836 FILLER_0_80_233
*17837 FILLER_0_80_245
*17838 FILLER_0_80_251
*17839 FILLER_0_80_253
*17840 FILLER_0_80_265
*17841 FILLER_0_80_27
*17842 FILLER_0_80_277
*17843 FILLER_0_80_289
*17844 FILLER_0_80_29
*17845 FILLER_0_80_3
*17846 FILLER_0_80_301
*17847 FILLER_0_80_307
*17848 FILLER_0_80_309
*17849 FILLER_0_80_321
*17850 FILLER_0_80_333
*17851 FILLER_0_80_345
*17852 FILLER_0_80_357
*17853 FILLER_0_80_363
*17854 FILLER_0_80_365
*17855 FILLER_0_80_377
*17856 FILLER_0_80_389
*17857 FILLER_0_80_401
*17858 FILLER_0_80_413
*17859 FILLER_0_80_419
*17860 FILLER_0_80_421
*17861 FILLER_0_80_433
*17862 FILLER_0_80_445
*17863 FILLER_0_80_457
*17864 FILLER_0_80_46
*17865 FILLER_0_80_469
*17866 FILLER_0_80_475
*17867 FILLER_0_80_477
*17868 FILLER_0_80_489
*17869 FILLER_0_80_501
*17870 FILLER_0_80_513
*17871 FILLER_0_80_525
*17872 FILLER_0_80_531
*17873 FILLER_0_80_533
*17874 FILLER_0_80_545
*17875 FILLER_0_80_557
*17876 FILLER_0_80_569
*17877 FILLER_0_80_58
*17878 FILLER_0_80_581
*17879 FILLER_0_80_587
*17880 FILLER_0_80_589
*17881 FILLER_0_80_601
*17882 FILLER_0_80_613
*17883 FILLER_0_80_625
*17884 FILLER_0_80_637
*17885 FILLER_0_80_643
*17886 FILLER_0_80_645
*17887 FILLER_0_80_657
*17888 FILLER_0_80_669
*17889 FILLER_0_80_681
*17890 FILLER_0_80_693
*17891 FILLER_0_80_699
*17892 FILLER_0_80_70
*17893 FILLER_0_80_701
*17894 FILLER_0_80_713
*17895 FILLER_0_80_725
*17896 FILLER_0_80_737
*17897 FILLER_0_80_749
*17898 FILLER_0_80_755
*17899 FILLER_0_80_757
*17900 FILLER_0_80_769
*17901 FILLER_0_80_781
*17902 FILLER_0_80_793
*17903 FILLER_0_80_805
*17904 FILLER_0_80_811
*17905 FILLER_0_80_813
*17906 FILLER_0_80_82
*17907 FILLER_0_80_825
*17908 FILLER_0_80_837
*17909 FILLER_0_80_849
*17910 FILLER_0_80_85
*17911 FILLER_0_80_861
*17912 FILLER_0_80_867
*17913 FILLER_0_80_869
*17914 FILLER_0_80_881
*17915 FILLER_0_80_893
*17916 FILLER_0_80_905
*17917 FILLER_0_80_917
*17918 FILLER_0_80_923
*17919 FILLER_0_80_925
*17920 FILLER_0_80_937
*17921 FILLER_0_80_949
*17922 FILLER_0_80_961
*17923 FILLER_0_80_973
*17924 FILLER_0_80_979
*17925 FILLER_0_80_981
*17926 FILLER_0_80_993
*17927 FILLER_0_81_1001
*17928 FILLER_0_81_1007
*17929 FILLER_0_81_1009
*17930 FILLER_0_81_102
*17931 FILLER_0_81_1021
*17932 FILLER_0_81_1033
*17933 FILLER_0_81_1045
*17934 FILLER_0_81_1057
*17935 FILLER_0_81_11
*17936 FILLER_0_81_110
*17937 FILLER_0_81_128
*17938 FILLER_0_81_140
*17939 FILLER_0_81_152
*17940 FILLER_0_81_164
*17941 FILLER_0_81_180
*17942 FILLER_0_81_188
*17943 FILLER_0_81_200
*17944 FILLER_0_81_212
*17945 FILLER_0_81_225
*17946 FILLER_0_81_237
*17947 FILLER_0_81_249
*17948 FILLER_0_81_261
*17949 FILLER_0_81_273
*17950 FILLER_0_81_279
*17951 FILLER_0_81_281
*17952 FILLER_0_81_293
*17953 FILLER_0_81_3
*17954 FILLER_0_81_305
*17955 FILLER_0_81_317
*17956 FILLER_0_81_329
*17957 FILLER_0_81_335
*17958 FILLER_0_81_337
*17959 FILLER_0_81_349
*17960 FILLER_0_81_361
*17961 FILLER_0_81_37
*17962 FILLER_0_81_373
*17963 FILLER_0_81_385
*17964 FILLER_0_81_391
*17965 FILLER_0_81_393
*17966 FILLER_0_81_405
*17967 FILLER_0_81_417
*17968 FILLER_0_81_429
*17969 FILLER_0_81_441
*17970 FILLER_0_81_447
*17971 FILLER_0_81_449
*17972 FILLER_0_81_461
*17973 FILLER_0_81_47
*17974 FILLER_0_81_473
*17975 FILLER_0_81_485
*17976 FILLER_0_81_497
*17977 FILLER_0_81_503
*17978 FILLER_0_81_505
*17979 FILLER_0_81_517
*17980 FILLER_0_81_529
*17981 FILLER_0_81_541
*17982 FILLER_0_81_55
*17983 FILLER_0_81_553
*17984 FILLER_0_81_559
*17985 FILLER_0_81_561
*17986 FILLER_0_81_57
*17987 FILLER_0_81_573
*17988 FILLER_0_81_585
*17989 FILLER_0_81_597
*17990 FILLER_0_81_609
*17991 FILLER_0_81_615
*17992 FILLER_0_81_617
*17993 FILLER_0_81_629
*17994 FILLER_0_81_641
*17995 FILLER_0_81_653
*17996 FILLER_0_81_665
*17997 FILLER_0_81_671
*17998 FILLER_0_81_673
*17999 FILLER_0_81_685
*18000 FILLER_0_81_69
*18001 FILLER_0_81_697
*18002 FILLER_0_81_709
*18003 FILLER_0_81_721
*18004 FILLER_0_81_727
*18005 FILLER_0_81_729
*18006 FILLER_0_81_741
*18007 FILLER_0_81_753
*18008 FILLER_0_81_765
*18009 FILLER_0_81_777
*18010 FILLER_0_81_783
*18011 FILLER_0_81_785
*18012 FILLER_0_81_797
*18013 FILLER_0_81_809
*18014 FILLER_0_81_821
*18015 FILLER_0_81_833
*18016 FILLER_0_81_839
*18017 FILLER_0_81_841
*18018 FILLER_0_81_853
*18019 FILLER_0_81_86
*18020 FILLER_0_81_865
*18021 FILLER_0_81_877
*18022 FILLER_0_81_889
*18023 FILLER_0_81_895
*18024 FILLER_0_81_897
*18025 FILLER_0_81_909
*18026 FILLER_0_81_921
*18027 FILLER_0_81_933
*18028 FILLER_0_81_945
*18029 FILLER_0_81_95
*18030 FILLER_0_81_951
*18031 FILLER_0_81_953
*18032 FILLER_0_81_965
*18033 FILLER_0_81_977
*18034 FILLER_0_81_989
*18035 FILLER_0_82_1005
*18036 FILLER_0_82_1017
*18037 FILLER_0_82_1029
*18038 FILLER_0_82_1035
*18039 FILLER_0_82_1037
*18040 FILLER_0_82_1049
*18041 FILLER_0_82_1057
*18042 FILLER_0_82_106
*18043 FILLER_0_82_118
*18044 FILLER_0_82_129
*18045 FILLER_0_82_136
*18046 FILLER_0_82_15
*18047 FILLER_0_82_156
*18048 FILLER_0_82_190
*18049 FILLER_0_82_197
*18050 FILLER_0_82_209
*18051 FILLER_0_82_221
*18052 FILLER_0_82_233
*18053 FILLER_0_82_245
*18054 FILLER_0_82_251
*18055 FILLER_0_82_253
*18056 FILLER_0_82_265
*18057 FILLER_0_82_27
*18058 FILLER_0_82_277
*18059 FILLER_0_82_289
*18060 FILLER_0_82_29
*18061 FILLER_0_82_3
*18062 FILLER_0_82_301
*18063 FILLER_0_82_307
*18064 FILLER_0_82_309
*18065 FILLER_0_82_321
*18066 FILLER_0_82_333
*18067 FILLER_0_82_345
*18068 FILLER_0_82_357
*18069 FILLER_0_82_36
*18070 FILLER_0_82_363
*18071 FILLER_0_82_365
*18072 FILLER_0_82_377
*18073 FILLER_0_82_389
*18074 FILLER_0_82_401
*18075 FILLER_0_82_413
*18076 FILLER_0_82_419
*18077 FILLER_0_82_421
*18078 FILLER_0_82_433
*18079 FILLER_0_82_445
*18080 FILLER_0_82_457
*18081 FILLER_0_82_469
*18082 FILLER_0_82_475
*18083 FILLER_0_82_477
*18084 FILLER_0_82_489
*18085 FILLER_0_82_501
*18086 FILLER_0_82_513
*18087 FILLER_0_82_52
*18088 FILLER_0_82_525
*18089 FILLER_0_82_531
*18090 FILLER_0_82_533
*18091 FILLER_0_82_545
*18092 FILLER_0_82_557
*18093 FILLER_0_82_569
*18094 FILLER_0_82_581
*18095 FILLER_0_82_587
*18096 FILLER_0_82_589
*18097 FILLER_0_82_601
*18098 FILLER_0_82_613
*18099 FILLER_0_82_625
*18100 FILLER_0_82_637
*18101 FILLER_0_82_64
*18102 FILLER_0_82_643
*18103 FILLER_0_82_645
*18104 FILLER_0_82_657
*18105 FILLER_0_82_669
*18106 FILLER_0_82_681
*18107 FILLER_0_82_693
*18108 FILLER_0_82_699
*18109 FILLER_0_82_701
*18110 FILLER_0_82_713
*18111 FILLER_0_82_72
*18112 FILLER_0_82_725
*18113 FILLER_0_82_737
*18114 FILLER_0_82_749
*18115 FILLER_0_82_755
*18116 FILLER_0_82_757
*18117 FILLER_0_82_769
*18118 FILLER_0_82_781
*18119 FILLER_0_82_793
*18120 FILLER_0_82_805
*18121 FILLER_0_82_811
*18122 FILLER_0_82_813
*18123 FILLER_0_82_825
*18124 FILLER_0_82_837
*18125 FILLER_0_82_849
*18126 FILLER_0_82_861
*18127 FILLER_0_82_867
*18128 FILLER_0_82_869
*18129 FILLER_0_82_881
*18130 FILLER_0_82_893
*18131 FILLER_0_82_90
*18132 FILLER_0_82_905
*18133 FILLER_0_82_917
*18134 FILLER_0_82_923
*18135 FILLER_0_82_925
*18136 FILLER_0_82_937
*18137 FILLER_0_82_94
*18138 FILLER_0_82_949
*18139 FILLER_0_82_961
*18140 FILLER_0_82_973
*18141 FILLER_0_82_979
*18142 FILLER_0_82_981
*18143 FILLER_0_82_993
*18144 FILLER_0_83_1001
*18145 FILLER_0_83_1007
*18146 FILLER_0_83_1009
*18147 FILLER_0_83_101
*18148 FILLER_0_83_1021
*18149 FILLER_0_83_1033
*18150 FILLER_0_83_1045
*18151 FILLER_0_83_1057
*18152 FILLER_0_83_109
*18153 FILLER_0_83_113
*18154 FILLER_0_83_137
*18155 FILLER_0_83_145
*18156 FILLER_0_83_164
*18157 FILLER_0_83_177
*18158 FILLER_0_83_18
*18159 FILLER_0_83_182
*18160 FILLER_0_83_194
*18161 FILLER_0_83_206
*18162 FILLER_0_83_218
*18163 FILLER_0_83_225
*18164 FILLER_0_83_237
*18165 FILLER_0_83_249
*18166 FILLER_0_83_261
*18167 FILLER_0_83_273
*18168 FILLER_0_83_279
*18169 FILLER_0_83_281
*18170 FILLER_0_83_293
*18171 FILLER_0_83_30
*18172 FILLER_0_83_305
*18173 FILLER_0_83_317
*18174 FILLER_0_83_329
*18175 FILLER_0_83_335
*18176 FILLER_0_83_337
*18177 FILLER_0_83_349
*18178 FILLER_0_83_361
*18179 FILLER_0_83_373
*18180 FILLER_0_83_385
*18181 FILLER_0_83_391
*18182 FILLER_0_83_393
*18183 FILLER_0_83_405
*18184 FILLER_0_83_417
*18185 FILLER_0_83_42
*18186 FILLER_0_83_429
*18187 FILLER_0_83_441
*18188 FILLER_0_83_447
*18189 FILLER_0_83_449
*18190 FILLER_0_83_461
*18191 FILLER_0_83_473
*18192 FILLER_0_83_485
*18193 FILLER_0_83_497
*18194 FILLER_0_83_50
*18195 FILLER_0_83_503
*18196 FILLER_0_83_505
*18197 FILLER_0_83_517
*18198 FILLER_0_83_529
*18199 FILLER_0_83_541
*18200 FILLER_0_83_553
*18201 FILLER_0_83_559
*18202 FILLER_0_83_561
*18203 FILLER_0_83_57
*18204 FILLER_0_83_573
*18205 FILLER_0_83_585
*18206 FILLER_0_83_597
*18207 FILLER_0_83_6
*18208 FILLER_0_83_609
*18209 FILLER_0_83_615
*18210 FILLER_0_83_617
*18211 FILLER_0_83_629
*18212 FILLER_0_83_641
*18213 FILLER_0_83_653
*18214 FILLER_0_83_665
*18215 FILLER_0_83_67
*18216 FILLER_0_83_671
*18217 FILLER_0_83_673
*18218 FILLER_0_83_685
*18219 FILLER_0_83_697
*18220 FILLER_0_83_709
*18221 FILLER_0_83_721
*18222 FILLER_0_83_727
*18223 FILLER_0_83_729
*18224 FILLER_0_83_741
*18225 FILLER_0_83_753
*18226 FILLER_0_83_765
*18227 FILLER_0_83_777
*18228 FILLER_0_83_783
*18229 FILLER_0_83_785
*18230 FILLER_0_83_79
*18231 FILLER_0_83_797
*18232 FILLER_0_83_809
*18233 FILLER_0_83_821
*18234 FILLER_0_83_833
*18235 FILLER_0_83_839
*18236 FILLER_0_83_841
*18237 FILLER_0_83_853
*18238 FILLER_0_83_865
*18239 FILLER_0_83_877
*18240 FILLER_0_83_889
*18241 FILLER_0_83_89
*18242 FILLER_0_83_895
*18243 FILLER_0_83_897
*18244 FILLER_0_83_909
*18245 FILLER_0_83_921
*18246 FILLER_0_83_933
*18247 FILLER_0_83_945
*18248 FILLER_0_83_951
*18249 FILLER_0_83_953
*18250 FILLER_0_83_965
*18251 FILLER_0_83_977
*18252 FILLER_0_83_989
*18253 FILLER_0_84_100
*18254 FILLER_0_84_1005
*18255 FILLER_0_84_1017
*18256 FILLER_0_84_1029
*18257 FILLER_0_84_1035
*18258 FILLER_0_84_1037
*18259 FILLER_0_84_1049
*18260 FILLER_0_84_1057
*18261 FILLER_0_84_112
*18262 FILLER_0_84_126
*18263 FILLER_0_84_132
*18264 FILLER_0_84_141
*18265 FILLER_0_84_153
*18266 FILLER_0_84_165
*18267 FILLER_0_84_177
*18268 FILLER_0_84_189
*18269 FILLER_0_84_19
*18270 FILLER_0_84_195
*18271 FILLER_0_84_197
*18272 FILLER_0_84_209
*18273 FILLER_0_84_221
*18274 FILLER_0_84_233
*18275 FILLER_0_84_245
*18276 FILLER_0_84_251
*18277 FILLER_0_84_253
*18278 FILLER_0_84_265
*18279 FILLER_0_84_27
*18280 FILLER_0_84_277
*18281 FILLER_0_84_289
*18282 FILLER_0_84_301
*18283 FILLER_0_84_307
*18284 FILLER_0_84_309
*18285 FILLER_0_84_321
*18286 FILLER_0_84_333
*18287 FILLER_0_84_345
*18288 FILLER_0_84_357
*18289 FILLER_0_84_363
*18290 FILLER_0_84_365
*18291 FILLER_0_84_37
*18292 FILLER_0_84_377
*18293 FILLER_0_84_389
*18294 FILLER_0_84_401
*18295 FILLER_0_84_413
*18296 FILLER_0_84_419
*18297 FILLER_0_84_421
*18298 FILLER_0_84_433
*18299 FILLER_0_84_445
*18300 FILLER_0_84_457
*18301 FILLER_0_84_469
*18302 FILLER_0_84_475
*18303 FILLER_0_84_477
*18304 FILLER_0_84_489
*18305 FILLER_0_84_49
*18306 FILLER_0_84_501
*18307 FILLER_0_84_513
*18308 FILLER_0_84_525
*18309 FILLER_0_84_531
*18310 FILLER_0_84_533
*18311 FILLER_0_84_545
*18312 FILLER_0_84_557
*18313 FILLER_0_84_569
*18314 FILLER_0_84_581
*18315 FILLER_0_84_587
*18316 FILLER_0_84_589
*18317 FILLER_0_84_601
*18318 FILLER_0_84_613
*18319 FILLER_0_84_625
*18320 FILLER_0_84_63
*18321 FILLER_0_84_637
*18322 FILLER_0_84_643
*18323 FILLER_0_84_645
*18324 FILLER_0_84_657
*18325 FILLER_0_84_669
*18326 FILLER_0_84_681
*18327 FILLER_0_84_693
*18328 FILLER_0_84_699
*18329 FILLER_0_84_701
*18330 FILLER_0_84_713
*18331 FILLER_0_84_725
*18332 FILLER_0_84_737
*18333 FILLER_0_84_749
*18334 FILLER_0_84_75
*18335 FILLER_0_84_755
*18336 FILLER_0_84_757
*18337 FILLER_0_84_769
*18338 FILLER_0_84_781
*18339 FILLER_0_84_793
*18340 FILLER_0_84_805
*18341 FILLER_0_84_811
*18342 FILLER_0_84_813
*18343 FILLER_0_84_825
*18344 FILLER_0_84_83
*18345 FILLER_0_84_837
*18346 FILLER_0_84_849
*18347 FILLER_0_84_85
*18348 FILLER_0_84_861
*18349 FILLER_0_84_867
*18350 FILLER_0_84_869
*18351 FILLER_0_84_881
*18352 FILLER_0_84_893
*18353 FILLER_0_84_905
*18354 FILLER_0_84_917
*18355 FILLER_0_84_923
*18356 FILLER_0_84_925
*18357 FILLER_0_84_937
*18358 FILLER_0_84_949
*18359 FILLER_0_84_961
*18360 FILLER_0_84_973
*18361 FILLER_0_84_979
*18362 FILLER_0_84_981
*18363 FILLER_0_84_993
*18364 FILLER_0_85_1001
*18365 FILLER_0_85_1007
*18366 FILLER_0_85_1009
*18367 FILLER_0_85_1021
*18368 FILLER_0_85_1033
*18369 FILLER_0_85_1045
*18370 FILLER_0_85_1057
*18371 FILLER_0_85_113
*18372 FILLER_0_85_117
*18373 FILLER_0_85_124
*18374 FILLER_0_85_130
*18375 FILLER_0_85_134
*18376 FILLER_0_85_140
*18377 FILLER_0_85_152
*18378 FILLER_0_85_16
*18379 FILLER_0_85_164
*18380 FILLER_0_85_185
*18381 FILLER_0_85_197
*18382 FILLER_0_85_20
*18383 FILLER_0_85_209
*18384 FILLER_0_85_221
*18385 FILLER_0_85_225
*18386 FILLER_0_85_237
*18387 FILLER_0_85_249
*18388 FILLER_0_85_261
*18389 FILLER_0_85_273
*18390 FILLER_0_85_279
*18391 FILLER_0_85_281
*18392 FILLER_0_85_293
*18393 FILLER_0_85_3
*18394 FILLER_0_85_305
*18395 FILLER_0_85_317
*18396 FILLER_0_85_32
*18397 FILLER_0_85_329
*18398 FILLER_0_85_335
*18399 FILLER_0_85_337
*18400 FILLER_0_85_349
*18401 FILLER_0_85_361
*18402 FILLER_0_85_373
*18403 FILLER_0_85_385
*18404 FILLER_0_85_391
*18405 FILLER_0_85_393
*18406 FILLER_0_85_405
*18407 FILLER_0_85_417
*18408 FILLER_0_85_429
*18409 FILLER_0_85_441
*18410 FILLER_0_85_447
*18411 FILLER_0_85_449
*18412 FILLER_0_85_461
*18413 FILLER_0_85_473
*18414 FILLER_0_85_485
*18415 FILLER_0_85_497
*18416 FILLER_0_85_503
*18417 FILLER_0_85_505
*18418 FILLER_0_85_51
*18419 FILLER_0_85_517
*18420 FILLER_0_85_529
*18421 FILLER_0_85_541
*18422 FILLER_0_85_553
*18423 FILLER_0_85_559
*18424 FILLER_0_85_561
*18425 FILLER_0_85_57
*18426 FILLER_0_85_573
*18427 FILLER_0_85_585
*18428 FILLER_0_85_597
*18429 FILLER_0_85_609
*18430 FILLER_0_85_615
*18431 FILLER_0_85_617
*18432 FILLER_0_85_629
*18433 FILLER_0_85_641
*18434 FILLER_0_85_653
*18435 FILLER_0_85_665
*18436 FILLER_0_85_671
*18437 FILLER_0_85_673
*18438 FILLER_0_85_685
*18439 FILLER_0_85_69
*18440 FILLER_0_85_697
*18441 FILLER_0_85_709
*18442 FILLER_0_85_721
*18443 FILLER_0_85_727
*18444 FILLER_0_85_729
*18445 FILLER_0_85_741
*18446 FILLER_0_85_753
*18447 FILLER_0_85_76
*18448 FILLER_0_85_765
*18449 FILLER_0_85_777
*18450 FILLER_0_85_783
*18451 FILLER_0_85_785
*18452 FILLER_0_85_797
*18453 FILLER_0_85_809
*18454 FILLER_0_85_821
*18455 FILLER_0_85_833
*18456 FILLER_0_85_839
*18457 FILLER_0_85_841
*18458 FILLER_0_85_853
*18459 FILLER_0_85_865
*18460 FILLER_0_85_877
*18461 FILLER_0_85_889
*18462 FILLER_0_85_895
*18463 FILLER_0_85_897
*18464 FILLER_0_85_909
*18465 FILLER_0_85_921
*18466 FILLER_0_85_933
*18467 FILLER_0_85_945
*18468 FILLER_0_85_951
*18469 FILLER_0_85_953
*18470 FILLER_0_85_965
*18471 FILLER_0_85_977
*18472 FILLER_0_85_989
*18473 FILLER_0_86_1005
*18474 FILLER_0_86_1017
*18475 FILLER_0_86_1029
*18476 FILLER_0_86_1035
*18477 FILLER_0_86_1037
*18478 FILLER_0_86_1049
*18479 FILLER_0_86_1057
*18480 FILLER_0_86_138
*18481 FILLER_0_86_146
*18482 FILLER_0_86_158
*18483 FILLER_0_86_170
*18484 FILLER_0_86_182
*18485 FILLER_0_86_194
*18486 FILLER_0_86_197
*18487 FILLER_0_86_209
*18488 FILLER_0_86_221
*18489 FILLER_0_86_233
*18490 FILLER_0_86_245
*18491 FILLER_0_86_251
*18492 FILLER_0_86_253
*18493 FILLER_0_86_265
*18494 FILLER_0_86_27
*18495 FILLER_0_86_277
*18496 FILLER_0_86_289
*18497 FILLER_0_86_29
*18498 FILLER_0_86_3
*18499 FILLER_0_86_301
*18500 FILLER_0_86_307
*18501 FILLER_0_86_309
*18502 FILLER_0_86_321
*18503 FILLER_0_86_333
*18504 FILLER_0_86_345
*18505 FILLER_0_86_357
*18506 FILLER_0_86_363
*18507 FILLER_0_86_365
*18508 FILLER_0_86_377
*18509 FILLER_0_86_389
*18510 FILLER_0_86_401
*18511 FILLER_0_86_41
*18512 FILLER_0_86_413
*18513 FILLER_0_86_419
*18514 FILLER_0_86_421
*18515 FILLER_0_86_433
*18516 FILLER_0_86_445
*18517 FILLER_0_86_457
*18518 FILLER_0_86_469
*18519 FILLER_0_86_475
*18520 FILLER_0_86_477
*18521 FILLER_0_86_48
*18522 FILLER_0_86_489
*18523 FILLER_0_86_501
*18524 FILLER_0_86_513
*18525 FILLER_0_86_525
*18526 FILLER_0_86_531
*18527 FILLER_0_86_533
*18528 FILLER_0_86_545
*18529 FILLER_0_86_557
*18530 FILLER_0_86_569
*18531 FILLER_0_86_581
*18532 FILLER_0_86_587
*18533 FILLER_0_86_589
*18534 FILLER_0_86_60
*18535 FILLER_0_86_601
*18536 FILLER_0_86_613
*18537 FILLER_0_86_625
*18538 FILLER_0_86_637
*18539 FILLER_0_86_643
*18540 FILLER_0_86_645
*18541 FILLER_0_86_657
*18542 FILLER_0_86_66
*18543 FILLER_0_86_669
*18544 FILLER_0_86_681
*18545 FILLER_0_86_693
*18546 FILLER_0_86_699
*18547 FILLER_0_86_701
*18548 FILLER_0_86_713
*18549 FILLER_0_86_725
*18550 FILLER_0_86_737
*18551 FILLER_0_86_749
*18552 FILLER_0_86_75
*18553 FILLER_0_86_755
*18554 FILLER_0_86_757
*18555 FILLER_0_86_769
*18556 FILLER_0_86_781
*18557 FILLER_0_86_793
*18558 FILLER_0_86_805
*18559 FILLER_0_86_811
*18560 FILLER_0_86_813
*18561 FILLER_0_86_825
*18562 FILLER_0_86_837
*18563 FILLER_0_86_849
*18564 FILLER_0_86_861
*18565 FILLER_0_86_867
*18566 FILLER_0_86_869
*18567 FILLER_0_86_881
*18568 FILLER_0_86_893
*18569 FILLER_0_86_90
*18570 FILLER_0_86_905
*18571 FILLER_0_86_917
*18572 FILLER_0_86_923
*18573 FILLER_0_86_925
*18574 FILLER_0_86_937
*18575 FILLER_0_86_949
*18576 FILLER_0_86_961
*18577 FILLER_0_86_973
*18578 FILLER_0_86_979
*18579 FILLER_0_86_981
*18580 FILLER_0_86_993
*18581 FILLER_0_87_1001
*18582 FILLER_0_87_1007
*18583 FILLER_0_87_1009
*18584 FILLER_0_87_1021
*18585 FILLER_0_87_1033
*18586 FILLER_0_87_104
*18587 FILLER_0_87_1045
*18588 FILLER_0_87_1057
*18589 FILLER_0_87_113
*18590 FILLER_0_87_126
*18591 FILLER_0_87_138
*18592 FILLER_0_87_142
*18593 FILLER_0_87_149
*18594 FILLER_0_87_15
*18595 FILLER_0_87_153
*18596 FILLER_0_87_162
*18597 FILLER_0_87_185
*18598 FILLER_0_87_197
*18599 FILLER_0_87_209
*18600 FILLER_0_87_221
*18601 FILLER_0_87_225
*18602 FILLER_0_87_237
*18603 FILLER_0_87_249
*18604 FILLER_0_87_261
*18605 FILLER_0_87_27
*18606 FILLER_0_87_273
*18607 FILLER_0_87_279
*18608 FILLER_0_87_281
*18609 FILLER_0_87_293
*18610 FILLER_0_87_3
*18611 FILLER_0_87_305
*18612 FILLER_0_87_317
*18613 FILLER_0_87_329
*18614 FILLER_0_87_335
*18615 FILLER_0_87_337
*18616 FILLER_0_87_349
*18617 FILLER_0_87_35
*18618 FILLER_0_87_361
*18619 FILLER_0_87_373
*18620 FILLER_0_87_385
*18621 FILLER_0_87_39
*18622 FILLER_0_87_391
*18623 FILLER_0_87_393
*18624 FILLER_0_87_405
*18625 FILLER_0_87_417
*18626 FILLER_0_87_429
*18627 FILLER_0_87_441
*18628 FILLER_0_87_447
*18629 FILLER_0_87_449
*18630 FILLER_0_87_461
*18631 FILLER_0_87_473
*18632 FILLER_0_87_485
*18633 FILLER_0_87_497
*18634 FILLER_0_87_503
*18635 FILLER_0_87_505
*18636 FILLER_0_87_51
*18637 FILLER_0_87_517
*18638 FILLER_0_87_529
*18639 FILLER_0_87_541
*18640 FILLER_0_87_55
*18641 FILLER_0_87_553
*18642 FILLER_0_87_559
*18643 FILLER_0_87_561
*18644 FILLER_0_87_57
*18645 FILLER_0_87_573
*18646 FILLER_0_87_585
*18647 FILLER_0_87_597
*18648 FILLER_0_87_609
*18649 FILLER_0_87_615
*18650 FILLER_0_87_617
*18651 FILLER_0_87_629
*18652 FILLER_0_87_641
*18653 FILLER_0_87_65
*18654 FILLER_0_87_653
*18655 FILLER_0_87_665
*18656 FILLER_0_87_671
*18657 FILLER_0_87_673
*18658 FILLER_0_87_685
*18659 FILLER_0_87_697
*18660 FILLER_0_87_709
*18661 FILLER_0_87_721
*18662 FILLER_0_87_727
*18663 FILLER_0_87_729
*18664 FILLER_0_87_741
*18665 FILLER_0_87_753
*18666 FILLER_0_87_765
*18667 FILLER_0_87_777
*18668 FILLER_0_87_783
*18669 FILLER_0_87_785
*18670 FILLER_0_87_797
*18671 FILLER_0_87_809
*18672 FILLER_0_87_821
*18673 FILLER_0_87_833
*18674 FILLER_0_87_839
*18675 FILLER_0_87_841
*18676 FILLER_0_87_853
*18677 FILLER_0_87_865
*18678 FILLER_0_87_877
*18679 FILLER_0_87_889
*18680 FILLER_0_87_895
*18681 FILLER_0_87_897
*18682 FILLER_0_87_909
*18683 FILLER_0_87_92
*18684 FILLER_0_87_921
*18685 FILLER_0_87_933
*18686 FILLER_0_87_945
*18687 FILLER_0_87_951
*18688 FILLER_0_87_953
*18689 FILLER_0_87_965
*18690 FILLER_0_87_977
*18691 FILLER_0_87_989
*18692 FILLER_0_88_1005
*18693 FILLER_0_88_1017
*18694 FILLER_0_88_102
*18695 FILLER_0_88_1029
*18696 FILLER_0_88_1035
*18697 FILLER_0_88_1037
*18698 FILLER_0_88_1049
*18699 FILLER_0_88_1057
*18700 FILLER_0_88_116
*18701 FILLER_0_88_128
*18702 FILLER_0_88_138
*18703 FILLER_0_88_147
*18704 FILLER_0_88_159
*18705 FILLER_0_88_178
*18706 FILLER_0_88_190
*18707 FILLER_0_88_197
*18708 FILLER_0_88_209
*18709 FILLER_0_88_221
*18710 FILLER_0_88_23
*18711 FILLER_0_88_233
*18712 FILLER_0_88_245
*18713 FILLER_0_88_251
*18714 FILLER_0_88_253
*18715 FILLER_0_88_265
*18716 FILLER_0_88_27
*18717 FILLER_0_88_277
*18718 FILLER_0_88_289
*18719 FILLER_0_88_29
*18720 FILLER_0_88_3
*18721 FILLER_0_88_301
*18722 FILLER_0_88_307
*18723 FILLER_0_88_309
*18724 FILLER_0_88_321
*18725 FILLER_0_88_333
*18726 FILLER_0_88_345
*18727 FILLER_0_88_357
*18728 FILLER_0_88_363
*18729 FILLER_0_88_365
*18730 FILLER_0_88_377
*18731 FILLER_0_88_389
*18732 FILLER_0_88_401
*18733 FILLER_0_88_41
*18734 FILLER_0_88_413
*18735 FILLER_0_88_419
*18736 FILLER_0_88_421
*18737 FILLER_0_88_433
*18738 FILLER_0_88_445
*18739 FILLER_0_88_457
*18740 FILLER_0_88_469
*18741 FILLER_0_88_475
*18742 FILLER_0_88_477
*18743 FILLER_0_88_489
*18744 FILLER_0_88_501
*18745 FILLER_0_88_513
*18746 FILLER_0_88_52
*18747 FILLER_0_88_525
*18748 FILLER_0_88_531
*18749 FILLER_0_88_533
*18750 FILLER_0_88_545
*18751 FILLER_0_88_557
*18752 FILLER_0_88_569
*18753 FILLER_0_88_581
*18754 FILLER_0_88_587
*18755 FILLER_0_88_589
*18756 FILLER_0_88_601
*18757 FILLER_0_88_613
*18758 FILLER_0_88_625
*18759 FILLER_0_88_637
*18760 FILLER_0_88_643
*18761 FILLER_0_88_645
*18762 FILLER_0_88_657
*18763 FILLER_0_88_669
*18764 FILLER_0_88_681
*18765 FILLER_0_88_693
*18766 FILLER_0_88_699
*18767 FILLER_0_88_701
*18768 FILLER_0_88_713
*18769 FILLER_0_88_725
*18770 FILLER_0_88_737
*18771 FILLER_0_88_749
*18772 FILLER_0_88_755
*18773 FILLER_0_88_757
*18774 FILLER_0_88_769
*18775 FILLER_0_88_781
*18776 FILLER_0_88_793
*18777 FILLER_0_88_805
*18778 FILLER_0_88_811
*18779 FILLER_0_88_813
*18780 FILLER_0_88_825
*18781 FILLER_0_88_837
*18782 FILLER_0_88_849
*18783 FILLER_0_88_861
*18784 FILLER_0_88_867
*18785 FILLER_0_88_869
*18786 FILLER_0_88_881
*18787 FILLER_0_88_893
*18788 FILLER_0_88_90
*18789 FILLER_0_88_905
*18790 FILLER_0_88_917
*18791 FILLER_0_88_923
*18792 FILLER_0_88_925
*18793 FILLER_0_88_937
*18794 FILLER_0_88_949
*18795 FILLER_0_88_961
*18796 FILLER_0_88_973
*18797 FILLER_0_88_979
*18798 FILLER_0_88_981
*18799 FILLER_0_88_993
*18800 FILLER_0_89_1001
*18801 FILLER_0_89_1007
*18802 FILLER_0_89_1009
*18803 FILLER_0_89_1021
*18804 FILLER_0_89_1033
*18805 FILLER_0_89_1045
*18806 FILLER_0_89_1057
*18807 FILLER_0_89_113
*18808 FILLER_0_89_13
*18809 FILLER_0_89_142
*18810 FILLER_0_89_151
*18811 FILLER_0_89_164
*18812 FILLER_0_89_169
*18813 FILLER_0_89_180
*18814 FILLER_0_89_192
*18815 FILLER_0_89_204
*18816 FILLER_0_89_216
*18817 FILLER_0_89_225
*18818 FILLER_0_89_237
*18819 FILLER_0_89_249
*18820 FILLER_0_89_261
*18821 FILLER_0_89_273
*18822 FILLER_0_89_279
*18823 FILLER_0_89_281
*18824 FILLER_0_89_293
*18825 FILLER_0_89_3
*18826 FILLER_0_89_305
*18827 FILLER_0_89_317
*18828 FILLER_0_89_329
*18829 FILLER_0_89_335
*18830 FILLER_0_89_337
*18831 FILLER_0_89_349
*18832 FILLER_0_89_361
*18833 FILLER_0_89_373
*18834 FILLER_0_89_385
*18835 FILLER_0_89_391
*18836 FILLER_0_89_393
*18837 FILLER_0_89_405
*18838 FILLER_0_89_417
*18839 FILLER_0_89_429
*18840 FILLER_0_89_43
*18841 FILLER_0_89_441
*18842 FILLER_0_89_447
*18843 FILLER_0_89_449
*18844 FILLER_0_89_461
*18845 FILLER_0_89_47
*18846 FILLER_0_89_473
*18847 FILLER_0_89_485
*18848 FILLER_0_89_497
*18849 FILLER_0_89_503
*18850 FILLER_0_89_505
*18851 FILLER_0_89_517
*18852 FILLER_0_89_529
*18853 FILLER_0_89_541
*18854 FILLER_0_89_55
*18855 FILLER_0_89_553
*18856 FILLER_0_89_559
*18857 FILLER_0_89_561
*18858 FILLER_0_89_57
*18859 FILLER_0_89_573
*18860 FILLER_0_89_585
*18861 FILLER_0_89_597
*18862 FILLER_0_89_609
*18863 FILLER_0_89_61
*18864 FILLER_0_89_615
*18865 FILLER_0_89_617
*18866 FILLER_0_89_629
*18867 FILLER_0_89_641
*18868 FILLER_0_89_653
*18869 FILLER_0_89_665
*18870 FILLER_0_89_671
*18871 FILLER_0_89_673
*18872 FILLER_0_89_685
*18873 FILLER_0_89_697
*18874 FILLER_0_89_709
*18875 FILLER_0_89_721
*18876 FILLER_0_89_727
*18877 FILLER_0_89_729
*18878 FILLER_0_89_741
*18879 FILLER_0_89_753
*18880 FILLER_0_89_765
*18881 FILLER_0_89_777
*18882 FILLER_0_89_783
*18883 FILLER_0_89_785
*18884 FILLER_0_89_797
*18885 FILLER_0_89_809
*18886 FILLER_0_89_82
*18887 FILLER_0_89_821
*18888 FILLER_0_89_833
*18889 FILLER_0_89_839
*18890 FILLER_0_89_841
*18891 FILLER_0_89_853
*18892 FILLER_0_89_865
*18893 FILLER_0_89_877
*18894 FILLER_0_89_889
*18895 FILLER_0_89_895
*18896 FILLER_0_89_897
*18897 FILLER_0_89_9
*18898 FILLER_0_89_909
*18899 FILLER_0_89_921
*18900 FILLER_0_89_933
*18901 FILLER_0_89_94
*18902 FILLER_0_89_945
*18903 FILLER_0_89_951
*18904 FILLER_0_89_953
*18905 FILLER_0_89_965
*18906 FILLER_0_89_977
*18907 FILLER_0_89_989
*18908 FILLER_0_8_1005
*18909 FILLER_0_8_1017
*18910 FILLER_0_8_1029
*18911 FILLER_0_8_1035
*18912 FILLER_0_8_1037
*18913 FILLER_0_8_1049
*18914 FILLER_0_8_1057
*18915 FILLER_0_8_109
*18916 FILLER_0_8_121
*18917 FILLER_0_8_133
*18918 FILLER_0_8_139
*18919 FILLER_0_8_141
*18920 FILLER_0_8_153
*18921 FILLER_0_8_165
*18922 FILLER_0_8_177
*18923 FILLER_0_8_189
*18924 FILLER_0_8_19
*18925 FILLER_0_8_195
*18926 FILLER_0_8_197
*18927 FILLER_0_8_209
*18928 FILLER_0_8_221
*18929 FILLER_0_8_233
*18930 FILLER_0_8_245
*18931 FILLER_0_8_251
*18932 FILLER_0_8_253
*18933 FILLER_0_8_265
*18934 FILLER_0_8_27
*18935 FILLER_0_8_277
*18936 FILLER_0_8_289
*18937 FILLER_0_8_29
*18938 FILLER_0_8_301
*18939 FILLER_0_8_307
*18940 FILLER_0_8_309
*18941 FILLER_0_8_321
*18942 FILLER_0_8_333
*18943 FILLER_0_8_345
*18944 FILLER_0_8_357
*18945 FILLER_0_8_363
*18946 FILLER_0_8_365
*18947 FILLER_0_8_377
*18948 FILLER_0_8_389
*18949 FILLER_0_8_401
*18950 FILLER_0_8_41
*18951 FILLER_0_8_413
*18952 FILLER_0_8_419
*18953 FILLER_0_8_421
*18954 FILLER_0_8_433
*18955 FILLER_0_8_445
*18956 FILLER_0_8_457
*18957 FILLER_0_8_469
*18958 FILLER_0_8_475
*18959 FILLER_0_8_477
*18960 FILLER_0_8_489
*18961 FILLER_0_8_501
*18962 FILLER_0_8_513
*18963 FILLER_0_8_525
*18964 FILLER_0_8_53
*18965 FILLER_0_8_531
*18966 FILLER_0_8_533
*18967 FILLER_0_8_545
*18968 FILLER_0_8_557
*18969 FILLER_0_8_569
*18970 FILLER_0_8_581
*18971 FILLER_0_8_587
*18972 FILLER_0_8_589
*18973 FILLER_0_8_601
*18974 FILLER_0_8_613
*18975 FILLER_0_8_625
*18976 FILLER_0_8_637
*18977 FILLER_0_8_643
*18978 FILLER_0_8_645
*18979 FILLER_0_8_65
*18980 FILLER_0_8_657
*18981 FILLER_0_8_669
*18982 FILLER_0_8_681
*18983 FILLER_0_8_693
*18984 FILLER_0_8_699
*18985 FILLER_0_8_7
*18986 FILLER_0_8_701
*18987 FILLER_0_8_713
*18988 FILLER_0_8_725
*18989 FILLER_0_8_737
*18990 FILLER_0_8_749
*18991 FILLER_0_8_755
*18992 FILLER_0_8_757
*18993 FILLER_0_8_769
*18994 FILLER_0_8_77
*18995 FILLER_0_8_781
*18996 FILLER_0_8_793
*18997 FILLER_0_8_805
*18998 FILLER_0_8_811
*18999 FILLER_0_8_813
*19000 FILLER_0_8_825
*19001 FILLER_0_8_83
*19002 FILLER_0_8_837
*19003 FILLER_0_8_849
*19004 FILLER_0_8_85
*19005 FILLER_0_8_861
*19006 FILLER_0_8_867
*19007 FILLER_0_8_869
*19008 FILLER_0_8_881
*19009 FILLER_0_8_893
*19010 FILLER_0_8_905
*19011 FILLER_0_8_917
*19012 FILLER_0_8_923
*19013 FILLER_0_8_925
*19014 FILLER_0_8_937
*19015 FILLER_0_8_949
*19016 FILLER_0_8_961
*19017 FILLER_0_8_97
*19018 FILLER_0_8_973
*19019 FILLER_0_8_979
*19020 FILLER_0_8_981
*19021 FILLER_0_8_993
*19022 FILLER_0_90_1005
*19023 FILLER_0_90_1017
*19024 FILLER_0_90_1029
*19025 FILLER_0_90_1035
*19026 FILLER_0_90_1037
*19027 FILLER_0_90_1049
*19028 FILLER_0_90_1057
*19029 FILLER_0_90_106
*19030 FILLER_0_90_11
*19031 FILLER_0_90_112
*19032 FILLER_0_90_121
*19033 FILLER_0_90_127
*19034 FILLER_0_90_137
*19035 FILLER_0_90_141
*19036 FILLER_0_90_153
*19037 FILLER_0_90_161
*19038 FILLER_0_90_170
*19039 FILLER_0_90_182
*19040 FILLER_0_90_194
*19041 FILLER_0_90_197
*19042 FILLER_0_90_209
*19043 FILLER_0_90_221
*19044 FILLER_0_90_233
*19045 FILLER_0_90_245
*19046 FILLER_0_90_251
*19047 FILLER_0_90_253
*19048 FILLER_0_90_265
*19049 FILLER_0_90_277
*19050 FILLER_0_90_289
*19051 FILLER_0_90_3
*19052 FILLER_0_90_301
*19053 FILLER_0_90_307
*19054 FILLER_0_90_309
*19055 FILLER_0_90_321
*19056 FILLER_0_90_333
*19057 FILLER_0_90_345
*19058 FILLER_0_90_357
*19059 FILLER_0_90_363
*19060 FILLER_0_90_365
*19061 FILLER_0_90_37
*19062 FILLER_0_90_377
*19063 FILLER_0_90_389
*19064 FILLER_0_90_401
*19065 FILLER_0_90_413
*19066 FILLER_0_90_419
*19067 FILLER_0_90_421
*19068 FILLER_0_90_433
*19069 FILLER_0_90_445
*19070 FILLER_0_90_457
*19071 FILLER_0_90_469
*19072 FILLER_0_90_475
*19073 FILLER_0_90_477
*19074 FILLER_0_90_489
*19075 FILLER_0_90_501
*19076 FILLER_0_90_513
*19077 FILLER_0_90_525
*19078 FILLER_0_90_531
*19079 FILLER_0_90_533
*19080 FILLER_0_90_54
*19081 FILLER_0_90_545
*19082 FILLER_0_90_557
*19083 FILLER_0_90_569
*19084 FILLER_0_90_581
*19085 FILLER_0_90_587
*19086 FILLER_0_90_589
*19087 FILLER_0_90_601
*19088 FILLER_0_90_613
*19089 FILLER_0_90_625
*19090 FILLER_0_90_63
*19091 FILLER_0_90_637
*19092 FILLER_0_90_643
*19093 FILLER_0_90_645
*19094 FILLER_0_90_657
*19095 FILLER_0_90_669
*19096 FILLER_0_90_681
*19097 FILLER_0_90_693
*19098 FILLER_0_90_699
*19099 FILLER_0_90_701
*19100 FILLER_0_90_713
*19101 FILLER_0_90_725
*19102 FILLER_0_90_737
*19103 FILLER_0_90_749
*19104 FILLER_0_90_755
*19105 FILLER_0_90_757
*19106 FILLER_0_90_769
*19107 FILLER_0_90_77
*19108 FILLER_0_90_781
*19109 FILLER_0_90_793
*19110 FILLER_0_90_805
*19111 FILLER_0_90_811
*19112 FILLER_0_90_813
*19113 FILLER_0_90_825
*19114 FILLER_0_90_83
*19115 FILLER_0_90_837
*19116 FILLER_0_90_849
*19117 FILLER_0_90_85
*19118 FILLER_0_90_861
*19119 FILLER_0_90_867
*19120 FILLER_0_90_869
*19121 FILLER_0_90_881
*19122 FILLER_0_90_893
*19123 FILLER_0_90_905
*19124 FILLER_0_90_917
*19125 FILLER_0_90_923
*19126 FILLER_0_90_925
*19127 FILLER_0_90_937
*19128 FILLER_0_90_94
*19129 FILLER_0_90_949
*19130 FILLER_0_90_961
*19131 FILLER_0_90_973
*19132 FILLER_0_90_979
*19133 FILLER_0_90_981
*19134 FILLER_0_90_993
*19135 FILLER_0_91_1001
*19136 FILLER_0_91_1007
*19137 FILLER_0_91_1009
*19138 FILLER_0_91_1021
*19139 FILLER_0_91_1033
*19140 FILLER_0_91_1045
*19141 FILLER_0_91_1057
*19142 FILLER_0_91_110
*19143 FILLER_0_91_113
*19144 FILLER_0_91_125
*19145 FILLER_0_91_137
*19146 FILLER_0_91_149
*19147 FILLER_0_91_157
*19148 FILLER_0_91_167
*19149 FILLER_0_91_169
*19150 FILLER_0_91_181
*19151 FILLER_0_91_19
*19152 FILLER_0_91_193
*19153 FILLER_0_91_205
*19154 FILLER_0_91_217
*19155 FILLER_0_91_223
*19156 FILLER_0_91_225
*19157 FILLER_0_91_237
*19158 FILLER_0_91_249
*19159 FILLER_0_91_261
*19160 FILLER_0_91_273
*19161 FILLER_0_91_279
*19162 FILLER_0_91_281
*19163 FILLER_0_91_293
*19164 FILLER_0_91_305
*19165 FILLER_0_91_317
*19166 FILLER_0_91_329
*19167 FILLER_0_91_335
*19168 FILLER_0_91_337
*19169 FILLER_0_91_349
*19170 FILLER_0_91_361
*19171 FILLER_0_91_373
*19172 FILLER_0_91_385
*19173 FILLER_0_91_391
*19174 FILLER_0_91_393
*19175 FILLER_0_91_405
*19176 FILLER_0_91_417
*19177 FILLER_0_91_429
*19178 FILLER_0_91_43
*19179 FILLER_0_91_441
*19180 FILLER_0_91_447
*19181 FILLER_0_91_449
*19182 FILLER_0_91_461
*19183 FILLER_0_91_47
*19184 FILLER_0_91_473
*19185 FILLER_0_91_485
*19186 FILLER_0_91_497
*19187 FILLER_0_91_503
*19188 FILLER_0_91_505
*19189 FILLER_0_91_51
*19190 FILLER_0_91_517
*19191 FILLER_0_91_529
*19192 FILLER_0_91_541
*19193 FILLER_0_91_55
*19194 FILLER_0_91_553
*19195 FILLER_0_91_559
*19196 FILLER_0_91_561
*19197 FILLER_0_91_57
*19198 FILLER_0_91_573
*19199 FILLER_0_91_585
*19200 FILLER_0_91_597
*19201 FILLER_0_91_609
*19202 FILLER_0_91_615
*19203 FILLER_0_91_617
*19204 FILLER_0_91_629
*19205 FILLER_0_91_63
*19206 FILLER_0_91_641
*19207 FILLER_0_91_653
*19208 FILLER_0_91_665
*19209 FILLER_0_91_671
*19210 FILLER_0_91_673
*19211 FILLER_0_91_685
*19212 FILLER_0_91_697
*19213 FILLER_0_91_709
*19214 FILLER_0_91_71
*19215 FILLER_0_91_721
*19216 FILLER_0_91_727
*19217 FILLER_0_91_729
*19218 FILLER_0_91_741
*19219 FILLER_0_91_753
*19220 FILLER_0_91_765
*19221 FILLER_0_91_777
*19222 FILLER_0_91_783
*19223 FILLER_0_91_785
*19224 FILLER_0_91_797
*19225 FILLER_0_91_809
*19226 FILLER_0_91_821
*19227 FILLER_0_91_833
*19228 FILLER_0_91_839
*19229 FILLER_0_91_841
*19230 FILLER_0_91_853
*19231 FILLER_0_91_86
*19232 FILLER_0_91_865
*19233 FILLER_0_91_877
*19234 FILLER_0_91_889
*19235 FILLER_0_91_895
*19236 FILLER_0_91_897
*19237 FILLER_0_91_909
*19238 FILLER_0_91_921
*19239 FILLER_0_91_933
*19240 FILLER_0_91_945
*19241 FILLER_0_91_951
*19242 FILLER_0_91_953
*19243 FILLER_0_91_965
*19244 FILLER_0_91_977
*19245 FILLER_0_91_98
*19246 FILLER_0_91_989
*19247 FILLER_0_92_1005
*19248 FILLER_0_92_1017
*19249 FILLER_0_92_1029
*19250 FILLER_0_92_1035
*19251 FILLER_0_92_1037
*19252 FILLER_0_92_1049
*19253 FILLER_0_92_1057
*19254 FILLER_0_92_109
*19255 FILLER_0_92_121
*19256 FILLER_0_92_136
*19257 FILLER_0_92_141
*19258 FILLER_0_92_153
*19259 FILLER_0_92_164
*19260 FILLER_0_92_176
*19261 FILLER_0_92_188
*19262 FILLER_0_92_197
*19263 FILLER_0_92_209
*19264 FILLER_0_92_221
*19265 FILLER_0_92_233
*19266 FILLER_0_92_245
*19267 FILLER_0_92_251
*19268 FILLER_0_92_253
*19269 FILLER_0_92_265
*19270 FILLER_0_92_277
*19271 FILLER_0_92_289
*19272 FILLER_0_92_29
*19273 FILLER_0_92_3
*19274 FILLER_0_92_301
*19275 FILLER_0_92_307
*19276 FILLER_0_92_309
*19277 FILLER_0_92_321
*19278 FILLER_0_92_333
*19279 FILLER_0_92_345
*19280 FILLER_0_92_357
*19281 FILLER_0_92_363
*19282 FILLER_0_92_365
*19283 FILLER_0_92_377
*19284 FILLER_0_92_389
*19285 FILLER_0_92_401
*19286 FILLER_0_92_41
*19287 FILLER_0_92_413
*19288 FILLER_0_92_419
*19289 FILLER_0_92_421
*19290 FILLER_0_92_433
*19291 FILLER_0_92_445
*19292 FILLER_0_92_457
*19293 FILLER_0_92_469
*19294 FILLER_0_92_475
*19295 FILLER_0_92_477
*19296 FILLER_0_92_489
*19297 FILLER_0_92_501
*19298 FILLER_0_92_51
*19299 FILLER_0_92_513
*19300 FILLER_0_92_525
*19301 FILLER_0_92_531
*19302 FILLER_0_92_533
*19303 FILLER_0_92_545
*19304 FILLER_0_92_557
*19305 FILLER_0_92_569
*19306 FILLER_0_92_581
*19307 FILLER_0_92_587
*19308 FILLER_0_92_589
*19309 FILLER_0_92_601
*19310 FILLER_0_92_613
*19311 FILLER_0_92_625
*19312 FILLER_0_92_63
*19313 FILLER_0_92_637
*19314 FILLER_0_92_643
*19315 FILLER_0_92_645
*19316 FILLER_0_92_657
*19317 FILLER_0_92_669
*19318 FILLER_0_92_681
*19319 FILLER_0_92_693
*19320 FILLER_0_92_699
*19321 FILLER_0_92_701
*19322 FILLER_0_92_713
*19323 FILLER_0_92_725
*19324 FILLER_0_92_737
*19325 FILLER_0_92_749
*19326 FILLER_0_92_75
*19327 FILLER_0_92_755
*19328 FILLER_0_92_757
*19329 FILLER_0_92_769
*19330 FILLER_0_92_781
*19331 FILLER_0_92_793
*19332 FILLER_0_92_805
*19333 FILLER_0_92_811
*19334 FILLER_0_92_813
*19335 FILLER_0_92_825
*19336 FILLER_0_92_83
*19337 FILLER_0_92_837
*19338 FILLER_0_92_849
*19339 FILLER_0_92_85
*19340 FILLER_0_92_861
*19341 FILLER_0_92_867
*19342 FILLER_0_92_869
*19343 FILLER_0_92_881
*19344 FILLER_0_92_893
*19345 FILLER_0_92_905
*19346 FILLER_0_92_917
*19347 FILLER_0_92_923
*19348 FILLER_0_92_925
*19349 FILLER_0_92_937
*19350 FILLER_0_92_949
*19351 FILLER_0_92_961
*19352 FILLER_0_92_97
*19353 FILLER_0_92_973
*19354 FILLER_0_92_979
*19355 FILLER_0_92_981
*19356 FILLER_0_92_993
*19357 FILLER_0_93_1001
*19358 FILLER_0_93_1007
*19359 FILLER_0_93_1009
*19360 FILLER_0_93_1021
*19361 FILLER_0_93_1033
*19362 FILLER_0_93_1045
*19363 FILLER_0_93_1057
*19364 FILLER_0_93_106
*19365 FILLER_0_93_11
*19366 FILLER_0_93_137
*19367 FILLER_0_93_14
*19368 FILLER_0_93_149
*19369 FILLER_0_93_161
*19370 FILLER_0_93_167
*19371 FILLER_0_93_169
*19372 FILLER_0_93_181
*19373 FILLER_0_93_193
*19374 FILLER_0_93_205
*19375 FILLER_0_93_217
*19376 FILLER_0_93_22
*19377 FILLER_0_93_223
*19378 FILLER_0_93_225
*19379 FILLER_0_93_237
*19380 FILLER_0_93_249
*19381 FILLER_0_93_26
*19382 FILLER_0_93_261
*19383 FILLER_0_93_273
*19384 FILLER_0_93_279
*19385 FILLER_0_93_281
*19386 FILLER_0_93_293
*19387 FILLER_0_93_305
*19388 FILLER_0_93_317
*19389 FILLER_0_93_329
*19390 FILLER_0_93_335
*19391 FILLER_0_93_337
*19392 FILLER_0_93_34
*19393 FILLER_0_93_349
*19394 FILLER_0_93_361
*19395 FILLER_0_93_373
*19396 FILLER_0_93_385
*19397 FILLER_0_93_391
*19398 FILLER_0_93_393
*19399 FILLER_0_93_40
*19400 FILLER_0_93_405
*19401 FILLER_0_93_417
*19402 FILLER_0_93_429
*19403 FILLER_0_93_441
*19404 FILLER_0_93_447
*19405 FILLER_0_93_449
*19406 FILLER_0_93_461
*19407 FILLER_0_93_473
*19408 FILLER_0_93_485
*19409 FILLER_0_93_497
*19410 FILLER_0_93_503
*19411 FILLER_0_93_505
*19412 FILLER_0_93_517
*19413 FILLER_0_93_52
*19414 FILLER_0_93_529
*19415 FILLER_0_93_541
*19416 FILLER_0_93_553
*19417 FILLER_0_93_559
*19418 FILLER_0_93_561
*19419 FILLER_0_93_57
*19420 FILLER_0_93_573
*19421 FILLER_0_93_585
*19422 FILLER_0_93_597
*19423 FILLER_0_93_609
*19424 FILLER_0_93_615
*19425 FILLER_0_93_617
*19426 FILLER_0_93_629
*19427 FILLER_0_93_641
*19428 FILLER_0_93_653
*19429 FILLER_0_93_665
*19430 FILLER_0_93_671
*19431 FILLER_0_93_673
*19432 FILLER_0_93_685
*19433 FILLER_0_93_69
*19434 FILLER_0_93_697
*19435 FILLER_0_93_7
*19436 FILLER_0_93_709
*19437 FILLER_0_93_721
*19438 FILLER_0_93_727
*19439 FILLER_0_93_729
*19440 FILLER_0_93_74
*19441 FILLER_0_93_741
*19442 FILLER_0_93_753
*19443 FILLER_0_93_765
*19444 FILLER_0_93_777
*19445 FILLER_0_93_783
*19446 FILLER_0_93_785
*19447 FILLER_0_93_797
*19448 FILLER_0_93_809
*19449 FILLER_0_93_821
*19450 FILLER_0_93_83
*19451 FILLER_0_93_833
*19452 FILLER_0_93_839
*19453 FILLER_0_93_841
*19454 FILLER_0_93_853
*19455 FILLER_0_93_865
*19456 FILLER_0_93_877
*19457 FILLER_0_93_889
*19458 FILLER_0_93_895
*19459 FILLER_0_93_897
*19460 FILLER_0_93_909
*19461 FILLER_0_93_921
*19462 FILLER_0_93_933
*19463 FILLER_0_93_94
*19464 FILLER_0_93_945
*19465 FILLER_0_93_951
*19466 FILLER_0_93_953
*19467 FILLER_0_93_965
*19468 FILLER_0_93_977
*19469 FILLER_0_93_989
*19470 FILLER_0_94_1005
*19471 FILLER_0_94_1017
*19472 FILLER_0_94_102
*19473 FILLER_0_94_1029
*19474 FILLER_0_94_1035
*19475 FILLER_0_94_1037
*19476 FILLER_0_94_1049
*19477 FILLER_0_94_1057
*19478 FILLER_0_94_114
*19479 FILLER_0_94_122
*19480 FILLER_0_94_139
*19481 FILLER_0_94_141
*19482 FILLER_0_94_15
*19483 FILLER_0_94_153
*19484 FILLER_0_94_165
*19485 FILLER_0_94_177
*19486 FILLER_0_94_189
*19487 FILLER_0_94_195
*19488 FILLER_0_94_197
*19489 FILLER_0_94_209
*19490 FILLER_0_94_221
*19491 FILLER_0_94_233
*19492 FILLER_0_94_245
*19493 FILLER_0_94_251
*19494 FILLER_0_94_253
*19495 FILLER_0_94_265
*19496 FILLER_0_94_277
*19497 FILLER_0_94_289
*19498 FILLER_0_94_3
*19499 FILLER_0_94_301
*19500 FILLER_0_94_307
*19501 FILLER_0_94_309
*19502 FILLER_0_94_321
*19503 FILLER_0_94_333
*19504 FILLER_0_94_345
*19505 FILLER_0_94_357
*19506 FILLER_0_94_363
*19507 FILLER_0_94_365
*19508 FILLER_0_94_377
*19509 FILLER_0_94_389
*19510 FILLER_0_94_401
*19511 FILLER_0_94_413
*19512 FILLER_0_94_419
*19513 FILLER_0_94_421
*19514 FILLER_0_94_43
*19515 FILLER_0_94_433
*19516 FILLER_0_94_445
*19517 FILLER_0_94_457
*19518 FILLER_0_94_469
*19519 FILLER_0_94_47
*19520 FILLER_0_94_475
*19521 FILLER_0_94_477
*19522 FILLER_0_94_489
*19523 FILLER_0_94_501
*19524 FILLER_0_94_513
*19525 FILLER_0_94_525
*19526 FILLER_0_94_531
*19527 FILLER_0_94_533
*19528 FILLER_0_94_545
*19529 FILLER_0_94_557
*19530 FILLER_0_94_56
*19531 FILLER_0_94_569
*19532 FILLER_0_94_581
*19533 FILLER_0_94_587
*19534 FILLER_0_94_589
*19535 FILLER_0_94_601
*19536 FILLER_0_94_613
*19537 FILLER_0_94_625
*19538 FILLER_0_94_637
*19539 FILLER_0_94_64
*19540 FILLER_0_94_643
*19541 FILLER_0_94_645
*19542 FILLER_0_94_657
*19543 FILLER_0_94_669
*19544 FILLER_0_94_681
*19545 FILLER_0_94_693
*19546 FILLER_0_94_699
*19547 FILLER_0_94_701
*19548 FILLER_0_94_713
*19549 FILLER_0_94_725
*19550 FILLER_0_94_737
*19551 FILLER_0_94_749
*19552 FILLER_0_94_755
*19553 FILLER_0_94_757
*19554 FILLER_0_94_769
*19555 FILLER_0_94_781
*19556 FILLER_0_94_793
*19557 FILLER_0_94_805
*19558 FILLER_0_94_811
*19559 FILLER_0_94_813
*19560 FILLER_0_94_825
*19561 FILLER_0_94_837
*19562 FILLER_0_94_849
*19563 FILLER_0_94_861
*19564 FILLER_0_94_867
*19565 FILLER_0_94_869
*19566 FILLER_0_94_881
*19567 FILLER_0_94_893
*19568 FILLER_0_94_905
*19569 FILLER_0_94_91
*19570 FILLER_0_94_917
*19571 FILLER_0_94_923
*19572 FILLER_0_94_925
*19573 FILLER_0_94_937
*19574 FILLER_0_94_949
*19575 FILLER_0_94_961
*19576 FILLER_0_94_973
*19577 FILLER_0_94_979
*19578 FILLER_0_94_981
*19579 FILLER_0_94_993
*19580 FILLER_0_95_1001
*19581 FILLER_0_95_1007
*19582 FILLER_0_95_1009
*19583 FILLER_0_95_1021
*19584 FILLER_0_95_1033
*19585 FILLER_0_95_1045
*19586 FILLER_0_95_1057
*19587 FILLER_0_95_108
*19588 FILLER_0_95_121
*19589 FILLER_0_95_133
*19590 FILLER_0_95_145
*19591 FILLER_0_95_157
*19592 FILLER_0_95_165
*19593 FILLER_0_95_169
*19594 FILLER_0_95_181
*19595 FILLER_0_95_193
*19596 FILLER_0_95_205
*19597 FILLER_0_95_217
*19598 FILLER_0_95_223
*19599 FILLER_0_95_225
*19600 FILLER_0_95_23
*19601 FILLER_0_95_237
*19602 FILLER_0_95_249
*19603 FILLER_0_95_261
*19604 FILLER_0_95_27
*19605 FILLER_0_95_273
*19606 FILLER_0_95_279
*19607 FILLER_0_95_281
*19608 FILLER_0_95_293
*19609 FILLER_0_95_3
*19610 FILLER_0_95_305
*19611 FILLER_0_95_317
*19612 FILLER_0_95_32
*19613 FILLER_0_95_329
*19614 FILLER_0_95_335
*19615 FILLER_0_95_337
*19616 FILLER_0_95_349
*19617 FILLER_0_95_361
*19618 FILLER_0_95_373
*19619 FILLER_0_95_385
*19620 FILLER_0_95_391
*19621 FILLER_0_95_393
*19622 FILLER_0_95_405
*19623 FILLER_0_95_417
*19624 FILLER_0_95_429
*19625 FILLER_0_95_44
*19626 FILLER_0_95_441
*19627 FILLER_0_95_447
*19628 FILLER_0_95_449
*19629 FILLER_0_95_461
*19630 FILLER_0_95_473
*19631 FILLER_0_95_485
*19632 FILLER_0_95_497
*19633 FILLER_0_95_50
*19634 FILLER_0_95_503
*19635 FILLER_0_95_505
*19636 FILLER_0_95_517
*19637 FILLER_0_95_529
*19638 FILLER_0_95_541
*19639 FILLER_0_95_553
*19640 FILLER_0_95_559
*19641 FILLER_0_95_561
*19642 FILLER_0_95_57
*19643 FILLER_0_95_573
*19644 FILLER_0_95_585
*19645 FILLER_0_95_597
*19646 FILLER_0_95_609
*19647 FILLER_0_95_615
*19648 FILLER_0_95_617
*19649 FILLER_0_95_629
*19650 FILLER_0_95_641
*19651 FILLER_0_95_653
*19652 FILLER_0_95_665
*19653 FILLER_0_95_671
*19654 FILLER_0_95_673
*19655 FILLER_0_95_685
*19656 FILLER_0_95_697
*19657 FILLER_0_95_709
*19658 FILLER_0_95_721
*19659 FILLER_0_95_727
*19660 FILLER_0_95_729
*19661 FILLER_0_95_741
*19662 FILLER_0_95_753
*19663 FILLER_0_95_765
*19664 FILLER_0_95_77
*19665 FILLER_0_95_777
*19666 FILLER_0_95_783
*19667 FILLER_0_95_785
*19668 FILLER_0_95_797
*19669 FILLER_0_95_809
*19670 FILLER_0_95_821
*19671 FILLER_0_95_833
*19672 FILLER_0_95_839
*19673 FILLER_0_95_841
*19674 FILLER_0_95_853
*19675 FILLER_0_95_865
*19676 FILLER_0_95_877
*19677 FILLER_0_95_889
*19678 FILLER_0_95_89
*19679 FILLER_0_95_895
*19680 FILLER_0_95_897
*19681 FILLER_0_95_909
*19682 FILLER_0_95_921
*19683 FILLER_0_95_933
*19684 FILLER_0_95_945
*19685 FILLER_0_95_951
*19686 FILLER_0_95_953
*19687 FILLER_0_95_965
*19688 FILLER_0_95_977
*19689 FILLER_0_95_989
*19690 FILLER_0_96_1005
*19691 FILLER_0_96_1017
*19692 FILLER_0_96_1029
*19693 FILLER_0_96_1035
*19694 FILLER_0_96_1037
*19695 FILLER_0_96_104
*19696 FILLER_0_96_1049
*19697 FILLER_0_96_1057
*19698 FILLER_0_96_108
*19699 FILLER_0_96_11
*19700 FILLER_0_96_120
*19701 FILLER_0_96_132
*19702 FILLER_0_96_141
*19703 FILLER_0_96_153
*19704 FILLER_0_96_165
*19705 FILLER_0_96_177
*19706 FILLER_0_96_189
*19707 FILLER_0_96_195
*19708 FILLER_0_96_197
*19709 FILLER_0_96_209
*19710 FILLER_0_96_221
*19711 FILLER_0_96_233
*19712 FILLER_0_96_245
*19713 FILLER_0_96_251
*19714 FILLER_0_96_253
*19715 FILLER_0_96_26
*19716 FILLER_0_96_265
*19717 FILLER_0_96_277
*19718 FILLER_0_96_289
*19719 FILLER_0_96_3
*19720 FILLER_0_96_301
*19721 FILLER_0_96_307
*19722 FILLER_0_96_309
*19723 FILLER_0_96_321
*19724 FILLER_0_96_333
*19725 FILLER_0_96_345
*19726 FILLER_0_96_357
*19727 FILLER_0_96_363
*19728 FILLER_0_96_365
*19729 FILLER_0_96_37
*19730 FILLER_0_96_377
*19731 FILLER_0_96_389
*19732 FILLER_0_96_401
*19733 FILLER_0_96_413
*19734 FILLER_0_96_419
*19735 FILLER_0_96_421
*19736 FILLER_0_96_433
*19737 FILLER_0_96_445
*19738 FILLER_0_96_457
*19739 FILLER_0_96_469
*19740 FILLER_0_96_475
*19741 FILLER_0_96_477
*19742 FILLER_0_96_489
*19743 FILLER_0_96_49
*19744 FILLER_0_96_501
*19745 FILLER_0_96_513
*19746 FILLER_0_96_525
*19747 FILLER_0_96_531
*19748 FILLER_0_96_533
*19749 FILLER_0_96_545
*19750 FILLER_0_96_557
*19751 FILLER_0_96_569
*19752 FILLER_0_96_581
*19753 FILLER_0_96_587
*19754 FILLER_0_96_589
*19755 FILLER_0_96_601
*19756 FILLER_0_96_613
*19757 FILLER_0_96_625
*19758 FILLER_0_96_637
*19759 FILLER_0_96_64
*19760 FILLER_0_96_643
*19761 FILLER_0_96_645
*19762 FILLER_0_96_657
*19763 FILLER_0_96_669
*19764 FILLER_0_96_681
*19765 FILLER_0_96_693
*19766 FILLER_0_96_699
*19767 FILLER_0_96_701
*19768 FILLER_0_96_713
*19769 FILLER_0_96_725
*19770 FILLER_0_96_737
*19771 FILLER_0_96_749
*19772 FILLER_0_96_755
*19773 FILLER_0_96_757
*19774 FILLER_0_96_76
*19775 FILLER_0_96_769
*19776 FILLER_0_96_781
*19777 FILLER_0_96_793
*19778 FILLER_0_96_805
*19779 FILLER_0_96_811
*19780 FILLER_0_96_813
*19781 FILLER_0_96_825
*19782 FILLER_0_96_837
*19783 FILLER_0_96_849
*19784 FILLER_0_96_85
*19785 FILLER_0_96_861
*19786 FILLER_0_96_867
*19787 FILLER_0_96_869
*19788 FILLER_0_96_881
*19789 FILLER_0_96_893
*19790 FILLER_0_96_905
*19791 FILLER_0_96_917
*19792 FILLER_0_96_923
*19793 FILLER_0_96_925
*19794 FILLER_0_96_937
*19795 FILLER_0_96_949
*19796 FILLER_0_96_961
*19797 FILLER_0_96_973
*19798 FILLER_0_96_979
*19799 FILLER_0_96_981
*19800 FILLER_0_96_993
*19801 FILLER_0_97_1001
*19802 FILLER_0_97_1007
*19803 FILLER_0_97_1009
*19804 FILLER_0_97_1021
*19805 FILLER_0_97_1033
*19806 FILLER_0_97_1045
*19807 FILLER_0_97_1057
*19808 FILLER_0_97_108
*19809 FILLER_0_97_113
*19810 FILLER_0_97_125
*19811 FILLER_0_97_137
*19812 FILLER_0_97_149
*19813 FILLER_0_97_161
*19814 FILLER_0_97_167
*19815 FILLER_0_97_169
*19816 FILLER_0_97_181
*19817 FILLER_0_97_19
*19818 FILLER_0_97_193
*19819 FILLER_0_97_205
*19820 FILLER_0_97_217
*19821 FILLER_0_97_223
*19822 FILLER_0_97_225
*19823 FILLER_0_97_237
*19824 FILLER_0_97_249
*19825 FILLER_0_97_261
*19826 FILLER_0_97_273
*19827 FILLER_0_97_279
*19828 FILLER_0_97_281
*19829 FILLER_0_97_293
*19830 FILLER_0_97_305
*19831 FILLER_0_97_317
*19832 FILLER_0_97_329
*19833 FILLER_0_97_335
*19834 FILLER_0_97_337
*19835 FILLER_0_97_349
*19836 FILLER_0_97_361
*19837 FILLER_0_97_373
*19838 FILLER_0_97_385
*19839 FILLER_0_97_391
*19840 FILLER_0_97_393
*19841 FILLER_0_97_405
*19842 FILLER_0_97_417
*19843 FILLER_0_97_429
*19844 FILLER_0_97_441
*19845 FILLER_0_97_447
*19846 FILLER_0_97_449
*19847 FILLER_0_97_461
*19848 FILLER_0_97_47
*19849 FILLER_0_97_473
*19850 FILLER_0_97_485
*19851 FILLER_0_97_497
*19852 FILLER_0_97_503
*19853 FILLER_0_97_505
*19854 FILLER_0_97_517
*19855 FILLER_0_97_529
*19856 FILLER_0_97_541
*19857 FILLER_0_97_55
*19858 FILLER_0_97_553
*19859 FILLER_0_97_559
*19860 FILLER_0_97_561
*19861 FILLER_0_97_57
*19862 FILLER_0_97_573
*19863 FILLER_0_97_585
*19864 FILLER_0_97_597
*19865 FILLER_0_97_609
*19866 FILLER_0_97_615
*19867 FILLER_0_97_617
*19868 FILLER_0_97_629
*19869 FILLER_0_97_641
*19870 FILLER_0_97_65
*19871 FILLER_0_97_653
*19872 FILLER_0_97_665
*19873 FILLER_0_97_671
*19874 FILLER_0_97_673
*19875 FILLER_0_97_685
*19876 FILLER_0_97_697
*19877 FILLER_0_97_709
*19878 FILLER_0_97_721
*19879 FILLER_0_97_727
*19880 FILLER_0_97_729
*19881 FILLER_0_97_741
*19882 FILLER_0_97_753
*19883 FILLER_0_97_76
*19884 FILLER_0_97_765
*19885 FILLER_0_97_777
*19886 FILLER_0_97_783
*19887 FILLER_0_97_785
*19888 FILLER_0_97_797
*19889 FILLER_0_97_809
*19890 FILLER_0_97_821
*19891 FILLER_0_97_833
*19892 FILLER_0_97_839
*19893 FILLER_0_97_841
*19894 FILLER_0_97_853
*19895 FILLER_0_97_865
*19896 FILLER_0_97_877
*19897 FILLER_0_97_88
*19898 FILLER_0_97_889
*19899 FILLER_0_97_895
*19900 FILLER_0_97_897
*19901 FILLER_0_97_909
*19902 FILLER_0_97_921
*19903 FILLER_0_97_933
*19904 FILLER_0_97_945
*19905 FILLER_0_97_951
*19906 FILLER_0_97_953
*19907 FILLER_0_97_96
*19908 FILLER_0_97_965
*19909 FILLER_0_97_977
*19910 FILLER_0_97_989
*19911 FILLER_0_98_1005
*19912 FILLER_0_98_1017
*19913 FILLER_0_98_1029
*19914 FILLER_0_98_1035
*19915 FILLER_0_98_1037
*19916 FILLER_0_98_1049
*19917 FILLER_0_98_1057
*19918 FILLER_0_98_106
*19919 FILLER_0_98_118
*19920 FILLER_0_98_130
*19921 FILLER_0_98_138
*19922 FILLER_0_98_14
*19923 FILLER_0_98_141
*19924 FILLER_0_98_153
*19925 FILLER_0_98_165
*19926 FILLER_0_98_177
*19927 FILLER_0_98_189
*19928 FILLER_0_98_195
*19929 FILLER_0_98_197
*19930 FILLER_0_98_209
*19931 FILLER_0_98_221
*19932 FILLER_0_98_233
*19933 FILLER_0_98_245
*19934 FILLER_0_98_251
*19935 FILLER_0_98_253
*19936 FILLER_0_98_265
*19937 FILLER_0_98_27
*19938 FILLER_0_98_277
*19939 FILLER_0_98_289
*19940 FILLER_0_98_29
*19941 FILLER_0_98_301
*19942 FILLER_0_98_307
*19943 FILLER_0_98_309
*19944 FILLER_0_98_321
*19945 FILLER_0_98_33
*19946 FILLER_0_98_333
*19947 FILLER_0_98_345
*19948 FILLER_0_98_357
*19949 FILLER_0_98_363
*19950 FILLER_0_98_365
*19951 FILLER_0_98_37
*19952 FILLER_0_98_377
*19953 FILLER_0_98_389
*19954 FILLER_0_98_401
*19955 FILLER_0_98_413
*19956 FILLER_0_98_419
*19957 FILLER_0_98_421
*19958 FILLER_0_98_433
*19959 FILLER_0_98_445
*19960 FILLER_0_98_457
*19961 FILLER_0_98_469
*19962 FILLER_0_98_475
*19963 FILLER_0_98_477
*19964 FILLER_0_98_489
*19965 FILLER_0_98_501
*19966 FILLER_0_98_513
*19967 FILLER_0_98_525
*19968 FILLER_0_98_531
*19969 FILLER_0_98_533
*19970 FILLER_0_98_545
*19971 FILLER_0_98_557
*19972 FILLER_0_98_569
*19973 FILLER_0_98_581
*19974 FILLER_0_98_587
*19975 FILLER_0_98_589
*19976 FILLER_0_98_6
*19977 FILLER_0_98_601
*19978 FILLER_0_98_613
*19979 FILLER_0_98_625
*19980 FILLER_0_98_637
*19981 FILLER_0_98_643
*19982 FILLER_0_98_645
*19983 FILLER_0_98_657
*19984 FILLER_0_98_669
*19985 FILLER_0_98_681
*19986 FILLER_0_98_693
*19987 FILLER_0_98_699
*19988 FILLER_0_98_70
*19989 FILLER_0_98_701
*19990 FILLER_0_98_713
*19991 FILLER_0_98_725
*19992 FILLER_0_98_737
*19993 FILLER_0_98_749
*19994 FILLER_0_98_755
*19995 FILLER_0_98_757
*19996 FILLER_0_98_769
*19997 FILLER_0_98_781
*19998 FILLER_0_98_793
*19999 FILLER_0_98_805
*20000 FILLER_0_98_811
*20001 FILLER_0_98_813
*20002 FILLER_0_98_82
*20003 FILLER_0_98_825
*20004 FILLER_0_98_837
*20005 FILLER_0_98_849
*20006 FILLER_0_98_85
*20007 FILLER_0_98_861
*20008 FILLER_0_98_867
*20009 FILLER_0_98_869
*20010 FILLER_0_98_881
*20011 FILLER_0_98_89
*20012 FILLER_0_98_893
*20013 FILLER_0_98_905
*20014 FILLER_0_98_917
*20015 FILLER_0_98_923
*20016 FILLER_0_98_925
*20017 FILLER_0_98_937
*20018 FILLER_0_98_949
*20019 FILLER_0_98_961
*20020 FILLER_0_98_973
*20021 FILLER_0_98_979
*20022 FILLER_0_98_981
*20023 FILLER_0_98_993
*20024 FILLER_0_99_1001
*20025 FILLER_0_99_1007
*20026 FILLER_0_99_1009
*20027 FILLER_0_99_1021
*20028 FILLER_0_99_1033
*20029 FILLER_0_99_1045
*20030 FILLER_0_99_105
*20031 FILLER_0_99_1057
*20032 FILLER_0_99_111
*20033 FILLER_0_99_113
*20034 FILLER_0_99_125
*20035 FILLER_0_99_137
*20036 FILLER_0_99_149
*20037 FILLER_0_99_161
*20038 FILLER_0_99_167
*20039 FILLER_0_99_169
*20040 FILLER_0_99_181
*20041 FILLER_0_99_193
*20042 FILLER_0_99_20
*20043 FILLER_0_99_205
*20044 FILLER_0_99_217
*20045 FILLER_0_99_223
*20046 FILLER_0_99_225
*20047 FILLER_0_99_237
*20048 FILLER_0_99_249
*20049 FILLER_0_99_261
*20050 FILLER_0_99_273
*20051 FILLER_0_99_279
*20052 FILLER_0_99_281
*20053 FILLER_0_99_293
*20054 FILLER_0_99_3
*20055 FILLER_0_99_305
*20056 FILLER_0_99_317
*20057 FILLER_0_99_32
*20058 FILLER_0_99_329
*20059 FILLER_0_99_335
*20060 FILLER_0_99_337
*20061 FILLER_0_99_349
*20062 FILLER_0_99_361
*20063 FILLER_0_99_373
*20064 FILLER_0_99_385
*20065 FILLER_0_99_391
*20066 FILLER_0_99_393
*20067 FILLER_0_99_405
*20068 FILLER_0_99_417
*20069 FILLER_0_99_429
*20070 FILLER_0_99_44
*20071 FILLER_0_99_441
*20072 FILLER_0_99_447
*20073 FILLER_0_99_449
*20074 FILLER_0_99_461
*20075 FILLER_0_99_473
*20076 FILLER_0_99_485
*20077 FILLER_0_99_497
*20078 FILLER_0_99_503
*20079 FILLER_0_99_505
*20080 FILLER_0_99_517
*20081 FILLER_0_99_529
*20082 FILLER_0_99_541
*20083 FILLER_0_99_553
*20084 FILLER_0_99_559
*20085 FILLER_0_99_561
*20086 FILLER_0_99_57
*20087 FILLER_0_99_573
*20088 FILLER_0_99_585
*20089 FILLER_0_99_597
*20090 FILLER_0_99_609
*20091 FILLER_0_99_615
*20092 FILLER_0_99_617
*20093 FILLER_0_99_629
*20094 FILLER_0_99_641
*20095 FILLER_0_99_653
*20096 FILLER_0_99_665
*20097 FILLER_0_99_671
*20098 FILLER_0_99_673
*20099 FILLER_0_99_685
*20100 FILLER_0_99_69
*20101 FILLER_0_99_697
*20102 FILLER_0_99_7
*20103 FILLER_0_99_709
*20104 FILLER_0_99_721
*20105 FILLER_0_99_727
*20106 FILLER_0_99_729
*20107 FILLER_0_99_741
*20108 FILLER_0_99_753
*20109 FILLER_0_99_765
*20110 FILLER_0_99_777
*20111 FILLER_0_99_783
*20112 FILLER_0_99_785
*20113 FILLER_0_99_797
*20114 FILLER_0_99_809
*20115 FILLER_0_99_81
*20116 FILLER_0_99_821
*20117 FILLER_0_99_833
*20118 FILLER_0_99_839
*20119 FILLER_0_99_841
*20120 FILLER_0_99_853
*20121 FILLER_0_99_865
*20122 FILLER_0_99_877
*20123 FILLER_0_99_889
*20124 FILLER_0_99_895
*20125 FILLER_0_99_897
*20126 FILLER_0_99_909
*20127 FILLER_0_99_921
*20128 FILLER_0_99_93
*20129 FILLER_0_99_933
*20130 FILLER_0_99_945
*20131 FILLER_0_99_951
*20132 FILLER_0_99_953
*20133 FILLER_0_99_965
*20134 FILLER_0_99_977
*20135 FILLER_0_99_989
*20136 FILLER_0_9_1001
*20137 FILLER_0_9_1007
*20138 FILLER_0_9_1009
*20139 FILLER_0_9_1021
*20140 FILLER_0_9_1033
*20141 FILLER_0_9_1045
*20142 FILLER_0_9_105
*20143 FILLER_0_9_1057
*20144 FILLER_0_9_111
*20145 FILLER_0_9_113
*20146 FILLER_0_9_125
*20147 FILLER_0_9_137
*20148 FILLER_0_9_149
*20149 FILLER_0_9_15
*20150 FILLER_0_9_161
*20151 FILLER_0_9_167
*20152 FILLER_0_9_169
*20153 FILLER_0_9_181
*20154 FILLER_0_9_193
*20155 FILLER_0_9_205
*20156 FILLER_0_9_217
*20157 FILLER_0_9_223
*20158 FILLER_0_9_225
*20159 FILLER_0_9_237
*20160 FILLER_0_9_249
*20161 FILLER_0_9_261
*20162 FILLER_0_9_27
*20163 FILLER_0_9_273
*20164 FILLER_0_9_279
*20165 FILLER_0_9_281
*20166 FILLER_0_9_293
*20167 FILLER_0_9_3
*20168 FILLER_0_9_305
*20169 FILLER_0_9_317
*20170 FILLER_0_9_329
*20171 FILLER_0_9_335
*20172 FILLER_0_9_337
*20173 FILLER_0_9_349
*20174 FILLER_0_9_361
*20175 FILLER_0_9_373
*20176 FILLER_0_9_385
*20177 FILLER_0_9_39
*20178 FILLER_0_9_391
*20179 FILLER_0_9_393
*20180 FILLER_0_9_405
*20181 FILLER_0_9_417
*20182 FILLER_0_9_429
*20183 FILLER_0_9_441
*20184 FILLER_0_9_447
*20185 FILLER_0_9_449
*20186 FILLER_0_9_461
*20187 FILLER_0_9_473
*20188 FILLER_0_9_485
*20189 FILLER_0_9_497
*20190 FILLER_0_9_503
*20191 FILLER_0_9_505
*20192 FILLER_0_9_51
*20193 FILLER_0_9_517
*20194 FILLER_0_9_529
*20195 FILLER_0_9_541
*20196 FILLER_0_9_55
*20197 FILLER_0_9_553
*20198 FILLER_0_9_559
*20199 FILLER_0_9_561
*20200 FILLER_0_9_57
*20201 FILLER_0_9_573
*20202 FILLER_0_9_585
*20203 FILLER_0_9_597
*20204 FILLER_0_9_609
*20205 FILLER_0_9_615
*20206 FILLER_0_9_617
*20207 FILLER_0_9_629
*20208 FILLER_0_9_641
*20209 FILLER_0_9_653
*20210 FILLER_0_9_665
*20211 FILLER_0_9_671
*20212 FILLER_0_9_673
*20213 FILLER_0_9_685
*20214 FILLER_0_9_69
*20215 FILLER_0_9_697
*20216 FILLER_0_9_709
*20217 FILLER_0_9_721
*20218 FILLER_0_9_727
*20219 FILLER_0_9_729
*20220 FILLER_0_9_741
*20221 FILLER_0_9_753
*20222 FILLER_0_9_765
*20223 FILLER_0_9_777
*20224 FILLER_0_9_783
*20225 FILLER_0_9_785
*20226 FILLER_0_9_797
*20227 FILLER_0_9_809
*20228 FILLER_0_9_81
*20229 FILLER_0_9_821
*20230 FILLER_0_9_833
*20231 FILLER_0_9_839
*20232 FILLER_0_9_841
*20233 FILLER_0_9_853
*20234 FILLER_0_9_865
*20235 FILLER_0_9_877
*20236 FILLER_0_9_889
*20237 FILLER_0_9_895
*20238 FILLER_0_9_897
*20239 FILLER_0_9_909
*20240 FILLER_0_9_921
*20241 FILLER_0_9_93
*20242 FILLER_0_9_933
*20243 FILLER_0_9_945
*20244 FILLER_0_9_951
*20245 FILLER_0_9_953
*20246 FILLER_0_9_965
*20247 FILLER_0_9_977
*20248 FILLER_0_9_989
*20249 PHY_EDGE_ROW_0_Left_175
*20250 PHY_EDGE_ROW_0_Right_0
*20251 PHY_EDGE_ROW_100_Left_275
*20252 PHY_EDGE_ROW_100_Right_100
*20253 PHY_EDGE_ROW_101_Left_276
*20254 PHY_EDGE_ROW_101_Right_101
*20255 PHY_EDGE_ROW_102_Left_277
*20256 PHY_EDGE_ROW_102_Right_102
*20257 PHY_EDGE_ROW_103_Left_278
*20258 PHY_EDGE_ROW_103_Right_103
*20259 PHY_EDGE_ROW_104_Left_279
*20260 PHY_EDGE_ROW_104_Right_104
*20261 PHY_EDGE_ROW_105_Left_280
*20262 PHY_EDGE_ROW_105_Right_105
*20263 PHY_EDGE_ROW_106_Left_281
*20264 PHY_EDGE_ROW_106_Right_106
*20265 PHY_EDGE_ROW_107_Left_282
*20266 PHY_EDGE_ROW_107_Right_107
*20267 PHY_EDGE_ROW_108_Left_283
*20268 PHY_EDGE_ROW_108_Right_108
*20269 PHY_EDGE_ROW_109_Left_284
*20270 PHY_EDGE_ROW_109_Right_109
*20271 PHY_EDGE_ROW_10_Left_185
*20272 PHY_EDGE_ROW_10_Right_10
*20273 PHY_EDGE_ROW_110_Left_285
*20274 PHY_EDGE_ROW_110_Right_110
*20275 PHY_EDGE_ROW_111_Left_286
*20276 PHY_EDGE_ROW_111_Right_111
*20277 PHY_EDGE_ROW_112_Left_287
*20278 PHY_EDGE_ROW_112_Right_112
*20279 PHY_EDGE_ROW_113_Left_288
*20280 PHY_EDGE_ROW_113_Right_113
*20281 PHY_EDGE_ROW_114_Left_289
*20282 PHY_EDGE_ROW_114_Right_114
*20283 PHY_EDGE_ROW_115_Left_290
*20284 PHY_EDGE_ROW_115_Right_115
*20285 PHY_EDGE_ROW_116_Left_291
*20286 PHY_EDGE_ROW_116_Right_116
*20287 PHY_EDGE_ROW_117_Left_292
*20288 PHY_EDGE_ROW_117_Right_117
*20289 PHY_EDGE_ROW_118_Left_293
*20290 PHY_EDGE_ROW_118_Right_118
*20291 PHY_EDGE_ROW_119_Left_294
*20292 PHY_EDGE_ROW_119_Right_119
*20293 PHY_EDGE_ROW_11_Left_186
*20294 PHY_EDGE_ROW_11_Right_11
*20295 PHY_EDGE_ROW_120_Left_295
*20296 PHY_EDGE_ROW_120_Right_120
*20297 PHY_EDGE_ROW_121_Left_296
*20298 PHY_EDGE_ROW_121_Right_121
*20299 PHY_EDGE_ROW_122_Left_297
*20300 PHY_EDGE_ROW_122_Right_122
*20301 PHY_EDGE_ROW_123_Left_298
*20302 PHY_EDGE_ROW_123_Right_123
*20303 PHY_EDGE_ROW_124_Left_299
*20304 PHY_EDGE_ROW_124_Right_124
*20305 PHY_EDGE_ROW_125_Left_300
*20306 PHY_EDGE_ROW_125_Right_125
*20307 PHY_EDGE_ROW_126_Left_301
*20308 PHY_EDGE_ROW_126_Right_126
*20309 PHY_EDGE_ROW_127_Left_302
*20310 PHY_EDGE_ROW_127_Right_127
*20311 PHY_EDGE_ROW_128_Left_303
*20312 PHY_EDGE_ROW_128_Right_128
*20313 PHY_EDGE_ROW_129_Left_304
*20314 PHY_EDGE_ROW_129_Right_129
*20315 PHY_EDGE_ROW_12_Left_187
*20316 PHY_EDGE_ROW_12_Right_12
*20317 PHY_EDGE_ROW_130_Left_305
*20318 PHY_EDGE_ROW_130_Right_130
*20319 PHY_EDGE_ROW_131_Left_306
*20320 PHY_EDGE_ROW_131_Right_131
*20321 PHY_EDGE_ROW_132_Left_307
*20322 PHY_EDGE_ROW_132_Right_132
*20323 PHY_EDGE_ROW_133_Left_308
*20324 PHY_EDGE_ROW_133_Right_133
*20325 PHY_EDGE_ROW_134_Left_309
*20326 PHY_EDGE_ROW_134_Right_134
*20327 PHY_EDGE_ROW_135_Left_310
*20328 PHY_EDGE_ROW_135_Right_135
*20329 PHY_EDGE_ROW_136_Left_311
*20330 PHY_EDGE_ROW_136_Right_136
*20331 PHY_EDGE_ROW_137_Left_312
*20332 PHY_EDGE_ROW_137_Right_137
*20333 PHY_EDGE_ROW_138_Left_313
*20334 PHY_EDGE_ROW_138_Right_138
*20335 PHY_EDGE_ROW_139_Left_314
*20336 PHY_EDGE_ROW_139_Right_139
*20337 PHY_EDGE_ROW_13_Left_188
*20338 PHY_EDGE_ROW_13_Right_13
*20339 PHY_EDGE_ROW_140_Left_315
*20340 PHY_EDGE_ROW_140_Right_140
*20341 PHY_EDGE_ROW_141_Left_316
*20342 PHY_EDGE_ROW_141_Right_141
*20343 PHY_EDGE_ROW_142_Left_317
*20344 PHY_EDGE_ROW_142_Right_142
*20345 PHY_EDGE_ROW_143_Left_318
*20346 PHY_EDGE_ROW_143_Right_143
*20347 PHY_EDGE_ROW_144_Left_319
*20348 PHY_EDGE_ROW_144_Right_144
*20349 PHY_EDGE_ROW_145_Left_320
*20350 PHY_EDGE_ROW_145_Right_145
*20351 PHY_EDGE_ROW_146_Left_321
*20352 PHY_EDGE_ROW_146_Right_146
*20353 PHY_EDGE_ROW_147_Left_322
*20354 PHY_EDGE_ROW_147_Right_147
*20355 PHY_EDGE_ROW_148_Left_323
*20356 PHY_EDGE_ROW_148_Right_148
*20357 PHY_EDGE_ROW_149_Left_324
*20358 PHY_EDGE_ROW_149_Right_149
*20359 PHY_EDGE_ROW_14_Left_189
*20360 PHY_EDGE_ROW_14_Right_14
*20361 PHY_EDGE_ROW_150_Left_325
*20362 PHY_EDGE_ROW_150_Right_150
*20363 PHY_EDGE_ROW_151_Left_326
*20364 PHY_EDGE_ROW_151_Right_151
*20365 PHY_EDGE_ROW_152_Left_327
*20366 PHY_EDGE_ROW_152_Right_152
*20367 PHY_EDGE_ROW_153_Left_328
*20368 PHY_EDGE_ROW_153_Right_153
*20369 PHY_EDGE_ROW_154_Left_329
*20370 PHY_EDGE_ROW_154_Right_154
*20371 PHY_EDGE_ROW_155_Left_330
*20372 PHY_EDGE_ROW_155_Right_155
*20373 PHY_EDGE_ROW_156_Left_331
*20374 PHY_EDGE_ROW_156_Right_156
*20375 PHY_EDGE_ROW_157_Left_332
*20376 PHY_EDGE_ROW_157_Right_157
*20377 PHY_EDGE_ROW_158_Left_333
*20378 PHY_EDGE_ROW_158_Right_158
*20379 PHY_EDGE_ROW_159_Left_334
*20380 PHY_EDGE_ROW_159_Right_159
*20381 PHY_EDGE_ROW_15_Left_190
*20382 PHY_EDGE_ROW_15_Right_15
*20383 PHY_EDGE_ROW_160_Left_335
*20384 PHY_EDGE_ROW_160_Right_160
*20385 PHY_EDGE_ROW_161_Left_336
*20386 PHY_EDGE_ROW_161_Right_161
*20387 PHY_EDGE_ROW_162_Left_337
*20388 PHY_EDGE_ROW_162_Right_162
*20389 PHY_EDGE_ROW_163_Left_338
*20390 PHY_EDGE_ROW_163_Right_163
*20391 PHY_EDGE_ROW_164_Left_339
*20392 PHY_EDGE_ROW_164_Right_164
*20393 PHY_EDGE_ROW_165_Left_340
*20394 PHY_EDGE_ROW_165_Right_165
*20395 PHY_EDGE_ROW_166_Left_341
*20396 PHY_EDGE_ROW_166_Right_166
*20397 PHY_EDGE_ROW_167_Left_342
*20398 PHY_EDGE_ROW_167_Right_167
*20399 PHY_EDGE_ROW_168_Left_343
*20400 PHY_EDGE_ROW_168_Right_168
*20401 PHY_EDGE_ROW_169_Left_344
*20402 PHY_EDGE_ROW_169_Right_169
*20403 PHY_EDGE_ROW_16_Left_191
*20404 PHY_EDGE_ROW_16_Right_16
*20405 PHY_EDGE_ROW_170_Left_345
*20406 PHY_EDGE_ROW_170_Right_170
*20407 PHY_EDGE_ROW_171_Left_346
*20408 PHY_EDGE_ROW_171_Right_171
*20409 PHY_EDGE_ROW_172_Left_347
*20410 PHY_EDGE_ROW_172_Right_172
*20411 PHY_EDGE_ROW_173_Left_348
*20412 PHY_EDGE_ROW_173_Right_173
*20413 PHY_EDGE_ROW_174_Left_349
*20414 PHY_EDGE_ROW_174_Right_174
*20415 PHY_EDGE_ROW_17_Left_192
*20416 PHY_EDGE_ROW_17_Right_17
*20417 PHY_EDGE_ROW_18_Left_193
*20418 PHY_EDGE_ROW_18_Right_18
*20419 PHY_EDGE_ROW_19_Left_194
*20420 PHY_EDGE_ROW_19_Right_19
*20421 PHY_EDGE_ROW_1_Left_176
*20422 PHY_EDGE_ROW_1_Right_1
*20423 PHY_EDGE_ROW_20_Left_195
*20424 PHY_EDGE_ROW_20_Right_20
*20425 PHY_EDGE_ROW_21_Left_196
*20426 PHY_EDGE_ROW_21_Right_21
*20427 PHY_EDGE_ROW_22_Left_197
*20428 PHY_EDGE_ROW_22_Right_22
*20429 PHY_EDGE_ROW_23_Left_198
*20430 PHY_EDGE_ROW_23_Right_23
*20431 PHY_EDGE_ROW_24_Left_199
*20432 PHY_EDGE_ROW_24_Right_24
*20433 PHY_EDGE_ROW_25_Left_200
*20434 PHY_EDGE_ROW_25_Right_25
*20435 PHY_EDGE_ROW_26_Left_201
*20436 PHY_EDGE_ROW_26_Right_26
*20437 PHY_EDGE_ROW_27_Left_202
*20438 PHY_EDGE_ROW_27_Right_27
*20439 PHY_EDGE_ROW_28_Left_203
*20440 PHY_EDGE_ROW_28_Right_28
*20441 PHY_EDGE_ROW_29_Left_204
*20442 PHY_EDGE_ROW_29_Right_29
*20443 PHY_EDGE_ROW_2_Left_177
*20444 PHY_EDGE_ROW_2_Right_2
*20445 PHY_EDGE_ROW_30_Left_205
*20446 PHY_EDGE_ROW_30_Right_30
*20447 PHY_EDGE_ROW_31_Left_206
*20448 PHY_EDGE_ROW_31_Right_31
*20449 PHY_EDGE_ROW_32_Left_207
*20450 PHY_EDGE_ROW_32_Right_32
*20451 PHY_EDGE_ROW_33_Left_208
*20452 PHY_EDGE_ROW_33_Right_33
*20453 PHY_EDGE_ROW_34_Left_209
*20454 PHY_EDGE_ROW_34_Right_34
*20455 PHY_EDGE_ROW_35_Left_210
*20456 PHY_EDGE_ROW_35_Right_35
*20457 PHY_EDGE_ROW_36_Left_211
*20458 PHY_EDGE_ROW_36_Right_36
*20459 PHY_EDGE_ROW_37_Left_212
*20460 PHY_EDGE_ROW_37_Right_37
*20461 PHY_EDGE_ROW_38_Left_213
*20462 PHY_EDGE_ROW_38_Right_38
*20463 PHY_EDGE_ROW_39_Left_214
*20464 PHY_EDGE_ROW_39_Right_39
*20465 PHY_EDGE_ROW_3_Left_178
*20466 PHY_EDGE_ROW_3_Right_3
*20467 PHY_EDGE_ROW_40_Left_215
*20468 PHY_EDGE_ROW_40_Right_40
*20469 PHY_EDGE_ROW_41_Left_216
*20470 PHY_EDGE_ROW_41_Right_41
*20471 PHY_EDGE_ROW_42_Left_217
*20472 PHY_EDGE_ROW_42_Right_42
*20473 PHY_EDGE_ROW_43_Left_218
*20474 PHY_EDGE_ROW_43_Right_43
*20475 PHY_EDGE_ROW_44_Left_219
*20476 PHY_EDGE_ROW_44_Right_44
*20477 PHY_EDGE_ROW_45_Left_220
*20478 PHY_EDGE_ROW_45_Right_45
*20479 PHY_EDGE_ROW_46_Left_221
*20480 PHY_EDGE_ROW_46_Right_46
*20481 PHY_EDGE_ROW_47_Left_222
*20482 PHY_EDGE_ROW_47_Right_47
*20483 PHY_EDGE_ROW_48_Left_223
*20484 PHY_EDGE_ROW_48_Right_48
*20485 PHY_EDGE_ROW_49_Left_224
*20486 PHY_EDGE_ROW_49_Right_49
*20487 PHY_EDGE_ROW_4_Left_179
*20488 PHY_EDGE_ROW_4_Right_4
*20489 PHY_EDGE_ROW_50_Left_225
*20490 PHY_EDGE_ROW_50_Right_50
*20491 PHY_EDGE_ROW_51_Left_226
*20492 PHY_EDGE_ROW_51_Right_51
*20493 PHY_EDGE_ROW_52_Left_227
*20494 PHY_EDGE_ROW_52_Right_52
*20495 PHY_EDGE_ROW_53_Left_228
*20496 PHY_EDGE_ROW_53_Right_53
*20497 PHY_EDGE_ROW_54_Left_229
*20498 PHY_EDGE_ROW_54_Right_54
*20499 PHY_EDGE_ROW_55_Left_230
*20500 PHY_EDGE_ROW_55_Right_55
*20501 PHY_EDGE_ROW_56_Left_231
*20502 PHY_EDGE_ROW_56_Right_56
*20503 PHY_EDGE_ROW_57_Left_232
*20504 PHY_EDGE_ROW_57_Right_57
*20505 PHY_EDGE_ROW_58_Left_233
*20506 PHY_EDGE_ROW_58_Right_58
*20507 PHY_EDGE_ROW_59_Left_234
*20508 PHY_EDGE_ROW_59_Right_59
*20509 PHY_EDGE_ROW_5_Left_180
*20510 PHY_EDGE_ROW_5_Right_5
*20511 PHY_EDGE_ROW_60_Left_235
*20512 PHY_EDGE_ROW_60_Right_60
*20513 PHY_EDGE_ROW_61_Left_236
*20514 PHY_EDGE_ROW_61_Right_61
*20515 PHY_EDGE_ROW_62_Left_237
*20516 PHY_EDGE_ROW_62_Right_62
*20517 PHY_EDGE_ROW_63_Left_238
*20518 PHY_EDGE_ROW_63_Right_63
*20519 PHY_EDGE_ROW_64_Left_239
*20520 PHY_EDGE_ROW_64_Right_64
*20521 PHY_EDGE_ROW_65_Left_240
*20522 PHY_EDGE_ROW_65_Right_65
*20523 PHY_EDGE_ROW_66_Left_241
*20524 PHY_EDGE_ROW_66_Right_66
*20525 PHY_EDGE_ROW_67_Left_242
*20526 PHY_EDGE_ROW_67_Right_67
*20527 PHY_EDGE_ROW_68_Left_243
*20528 PHY_EDGE_ROW_68_Right_68
*20529 PHY_EDGE_ROW_69_Left_244
*20530 PHY_EDGE_ROW_69_Right_69
*20531 PHY_EDGE_ROW_6_Left_181
*20532 PHY_EDGE_ROW_6_Right_6
*20533 PHY_EDGE_ROW_70_Left_245
*20534 PHY_EDGE_ROW_70_Right_70
*20535 PHY_EDGE_ROW_71_Left_246
*20536 PHY_EDGE_ROW_71_Right_71
*20537 PHY_EDGE_ROW_72_Left_247
*20538 PHY_EDGE_ROW_72_Right_72
*20539 PHY_EDGE_ROW_73_Left_248
*20540 PHY_EDGE_ROW_73_Right_73
*20541 PHY_EDGE_ROW_74_Left_249
*20542 PHY_EDGE_ROW_74_Right_74
*20543 PHY_EDGE_ROW_75_Left_250
*20544 PHY_EDGE_ROW_75_Right_75
*20545 PHY_EDGE_ROW_76_Left_251
*20546 PHY_EDGE_ROW_76_Right_76
*20547 PHY_EDGE_ROW_77_Left_252
*20548 PHY_EDGE_ROW_77_Right_77
*20549 PHY_EDGE_ROW_78_Left_253
*20550 PHY_EDGE_ROW_78_Right_78
*20551 PHY_EDGE_ROW_79_Left_254
*20552 PHY_EDGE_ROW_79_Right_79
*20553 PHY_EDGE_ROW_7_Left_182
*20554 PHY_EDGE_ROW_7_Right_7
*20555 PHY_EDGE_ROW_80_Left_255
*20556 PHY_EDGE_ROW_80_Right_80
*20557 PHY_EDGE_ROW_81_Left_256
*20558 PHY_EDGE_ROW_81_Right_81
*20559 PHY_EDGE_ROW_82_Left_257
*20560 PHY_EDGE_ROW_82_Right_82
*20561 PHY_EDGE_ROW_83_Left_258
*20562 PHY_EDGE_ROW_83_Right_83
*20563 PHY_EDGE_ROW_84_Left_259
*20564 PHY_EDGE_ROW_84_Right_84
*20565 PHY_EDGE_ROW_85_Left_260
*20566 PHY_EDGE_ROW_85_Right_85
*20567 PHY_EDGE_ROW_86_Left_261
*20568 PHY_EDGE_ROW_86_Right_86
*20569 PHY_EDGE_ROW_87_Left_262
*20570 PHY_EDGE_ROW_87_Right_87
*20571 PHY_EDGE_ROW_88_Left_263
*20572 PHY_EDGE_ROW_88_Right_88
*20573 PHY_EDGE_ROW_89_Left_264
*20574 PHY_EDGE_ROW_89_Right_89
*20575 PHY_EDGE_ROW_8_Left_183
*20576 PHY_EDGE_ROW_8_Right_8
*20577 PHY_EDGE_ROW_90_Left_265
*20578 PHY_EDGE_ROW_90_Right_90
*20579 PHY_EDGE_ROW_91_Left_266
*20580 PHY_EDGE_ROW_91_Right_91
*20581 PHY_EDGE_ROW_92_Left_267
*20582 PHY_EDGE_ROW_92_Right_92
*20583 PHY_EDGE_ROW_93_Left_268
*20584 PHY_EDGE_ROW_93_Right_93
*20585 PHY_EDGE_ROW_94_Left_269
*20586 PHY_EDGE_ROW_94_Right_94
*20587 PHY_EDGE_ROW_95_Left_270
*20588 PHY_EDGE_ROW_95_Right_95
*20589 PHY_EDGE_ROW_96_Left_271
*20590 PHY_EDGE_ROW_96_Right_96
*20591 PHY_EDGE_ROW_97_Left_272
*20592 PHY_EDGE_ROW_97_Right_97
*20593 PHY_EDGE_ROW_98_Left_273
*20594 PHY_EDGE_ROW_98_Right_98
*20595 PHY_EDGE_ROW_99_Left_274
*20596 PHY_EDGE_ROW_99_Right_99
*20597 PHY_EDGE_ROW_9_Left_184
*20598 PHY_EDGE_ROW_9_Right_9
*20599 TAP_TAPCELL_ROW_0_350
*20600 TAP_TAPCELL_ROW_0_351
*20601 TAP_TAPCELL_ROW_0_352
*20602 TAP_TAPCELL_ROW_0_353
*20603 TAP_TAPCELL_ROW_0_354
*20604 TAP_TAPCELL_ROW_0_355
*20605 TAP_TAPCELL_ROW_0_356
*20606 TAP_TAPCELL_ROW_0_357
*20607 TAP_TAPCELL_ROW_0_358
*20608 TAP_TAPCELL_ROW_0_359
*20609 TAP_TAPCELL_ROW_0_360
*20610 TAP_TAPCELL_ROW_0_361
*20611 TAP_TAPCELL_ROW_0_362
*20612 TAP_TAPCELL_ROW_0_363
*20613 TAP_TAPCELL_ROW_0_364
*20614 TAP_TAPCELL_ROW_0_365
*20615 TAP_TAPCELL_ROW_0_366
*20616 TAP_TAPCELL_ROW_0_367
*20617 TAP_TAPCELL_ROW_0_368
*20618 TAP_TAPCELL_ROW_0_369
*20619 TAP_TAPCELL_ROW_0_370
*20620 TAP_TAPCELL_ROW_0_371
*20621 TAP_TAPCELL_ROW_0_372
*20622 TAP_TAPCELL_ROW_0_373
*20623 TAP_TAPCELL_ROW_0_374
*20624 TAP_TAPCELL_ROW_0_375
*20625 TAP_TAPCELL_ROW_0_376
*20626 TAP_TAPCELL_ROW_0_377
*20627 TAP_TAPCELL_ROW_0_378
*20628 TAP_TAPCELL_ROW_0_379
*20629 TAP_TAPCELL_ROW_0_380
*20630 TAP_TAPCELL_ROW_0_381
*20631 TAP_TAPCELL_ROW_0_382
*20632 TAP_TAPCELL_ROW_0_383
*20633 TAP_TAPCELL_ROW_0_384
*20634 TAP_TAPCELL_ROW_0_385
*20635 TAP_TAPCELL_ROW_0_386
*20636 TAP_TAPCELL_ROW_100_2218
*20637 TAP_TAPCELL_ROW_100_2219
*20638 TAP_TAPCELL_ROW_100_2220
*20639 TAP_TAPCELL_ROW_100_2221
*20640 TAP_TAPCELL_ROW_100_2222
*20641 TAP_TAPCELL_ROW_100_2223
*20642 TAP_TAPCELL_ROW_100_2224
*20643 TAP_TAPCELL_ROW_100_2225
*20644 TAP_TAPCELL_ROW_100_2226
*20645 TAP_TAPCELL_ROW_100_2227
*20646 TAP_TAPCELL_ROW_100_2228
*20647 TAP_TAPCELL_ROW_100_2229
*20648 TAP_TAPCELL_ROW_100_2230
*20649 TAP_TAPCELL_ROW_100_2231
*20650 TAP_TAPCELL_ROW_100_2232
*20651 TAP_TAPCELL_ROW_100_2233
*20652 TAP_TAPCELL_ROW_100_2234
*20653 TAP_TAPCELL_ROW_100_2235
*20654 TAP_TAPCELL_ROW_100_2236
*20655 TAP_TAPCELL_ROW_101_2237
*20656 TAP_TAPCELL_ROW_101_2238
*20657 TAP_TAPCELL_ROW_101_2239
*20658 TAP_TAPCELL_ROW_101_2240
*20659 TAP_TAPCELL_ROW_101_2241
*20660 TAP_TAPCELL_ROW_101_2242
*20661 TAP_TAPCELL_ROW_101_2243
*20662 TAP_TAPCELL_ROW_101_2244
*20663 TAP_TAPCELL_ROW_101_2245
*20664 TAP_TAPCELL_ROW_101_2246
*20665 TAP_TAPCELL_ROW_101_2247
*20666 TAP_TAPCELL_ROW_101_2248
*20667 TAP_TAPCELL_ROW_101_2249
*20668 TAP_TAPCELL_ROW_101_2250
*20669 TAP_TAPCELL_ROW_101_2251
*20670 TAP_TAPCELL_ROW_101_2252
*20671 TAP_TAPCELL_ROW_101_2253
*20672 TAP_TAPCELL_ROW_101_2254
*20673 TAP_TAPCELL_ROW_102_2255
*20674 TAP_TAPCELL_ROW_102_2256
*20675 TAP_TAPCELL_ROW_102_2257
*20676 TAP_TAPCELL_ROW_102_2258
*20677 TAP_TAPCELL_ROW_102_2259
*20678 TAP_TAPCELL_ROW_102_2260
*20679 TAP_TAPCELL_ROW_102_2261
*20680 TAP_TAPCELL_ROW_102_2262
*20681 TAP_TAPCELL_ROW_102_2263
*20682 TAP_TAPCELL_ROW_102_2264
*20683 TAP_TAPCELL_ROW_102_2265
*20684 TAP_TAPCELL_ROW_102_2266
*20685 TAP_TAPCELL_ROW_102_2267
*20686 TAP_TAPCELL_ROW_102_2268
*20687 TAP_TAPCELL_ROW_102_2269
*20688 TAP_TAPCELL_ROW_102_2270
*20689 TAP_TAPCELL_ROW_102_2271
*20690 TAP_TAPCELL_ROW_102_2272
*20691 TAP_TAPCELL_ROW_102_2273
*20692 TAP_TAPCELL_ROW_103_2274
*20693 TAP_TAPCELL_ROW_103_2275
*20694 TAP_TAPCELL_ROW_103_2276
*20695 TAP_TAPCELL_ROW_103_2277
*20696 TAP_TAPCELL_ROW_103_2278
*20697 TAP_TAPCELL_ROW_103_2279
*20698 TAP_TAPCELL_ROW_103_2280
*20699 TAP_TAPCELL_ROW_103_2281
*20700 TAP_TAPCELL_ROW_103_2282
*20701 TAP_TAPCELL_ROW_103_2283
*20702 TAP_TAPCELL_ROW_103_2284
*20703 TAP_TAPCELL_ROW_103_2285
*20704 TAP_TAPCELL_ROW_103_2286
*20705 TAP_TAPCELL_ROW_103_2287
*20706 TAP_TAPCELL_ROW_103_2288
*20707 TAP_TAPCELL_ROW_103_2289
*20708 TAP_TAPCELL_ROW_103_2290
*20709 TAP_TAPCELL_ROW_103_2291
*20710 TAP_TAPCELL_ROW_104_2292
*20711 TAP_TAPCELL_ROW_104_2293
*20712 TAP_TAPCELL_ROW_104_2294
*20713 TAP_TAPCELL_ROW_104_2295
*20714 TAP_TAPCELL_ROW_104_2296
*20715 TAP_TAPCELL_ROW_104_2297
*20716 TAP_TAPCELL_ROW_104_2298
*20717 TAP_TAPCELL_ROW_104_2299
*20718 TAP_TAPCELL_ROW_104_2300
*20719 TAP_TAPCELL_ROW_104_2301
*20720 TAP_TAPCELL_ROW_104_2302
*20721 TAP_TAPCELL_ROW_104_2303
*20722 TAP_TAPCELL_ROW_104_2304
*20723 TAP_TAPCELL_ROW_104_2305
*20724 TAP_TAPCELL_ROW_104_2306
*20725 TAP_TAPCELL_ROW_104_2307
*20726 TAP_TAPCELL_ROW_104_2308
*20727 TAP_TAPCELL_ROW_104_2309
*20728 TAP_TAPCELL_ROW_104_2310
*20729 TAP_TAPCELL_ROW_105_2311
*20730 TAP_TAPCELL_ROW_105_2312
*20731 TAP_TAPCELL_ROW_105_2313
*20732 TAP_TAPCELL_ROW_105_2314
*20733 TAP_TAPCELL_ROW_105_2315
*20734 TAP_TAPCELL_ROW_105_2316
*20735 TAP_TAPCELL_ROW_105_2317
*20736 TAP_TAPCELL_ROW_105_2318
*20737 TAP_TAPCELL_ROW_105_2319
*20738 TAP_TAPCELL_ROW_105_2320
*20739 TAP_TAPCELL_ROW_105_2321
*20740 TAP_TAPCELL_ROW_105_2322
*20741 TAP_TAPCELL_ROW_105_2323
*20742 TAP_TAPCELL_ROW_105_2324
*20743 TAP_TAPCELL_ROW_105_2325
*20744 TAP_TAPCELL_ROW_105_2326
*20745 TAP_TAPCELL_ROW_105_2327
*20746 TAP_TAPCELL_ROW_105_2328
*20747 TAP_TAPCELL_ROW_106_2329
*20748 TAP_TAPCELL_ROW_106_2330
*20749 TAP_TAPCELL_ROW_106_2331
*20750 TAP_TAPCELL_ROW_106_2332
*20751 TAP_TAPCELL_ROW_106_2333
*20752 TAP_TAPCELL_ROW_106_2334
*20753 TAP_TAPCELL_ROW_106_2335
*20754 TAP_TAPCELL_ROW_106_2336
*20755 TAP_TAPCELL_ROW_106_2337
*20756 TAP_TAPCELL_ROW_106_2338
*20757 TAP_TAPCELL_ROW_106_2339
*20758 TAP_TAPCELL_ROW_106_2340
*20759 TAP_TAPCELL_ROW_106_2341
*20760 TAP_TAPCELL_ROW_106_2342
*20761 TAP_TAPCELL_ROW_106_2343
*20762 TAP_TAPCELL_ROW_106_2344
*20763 TAP_TAPCELL_ROW_106_2345
*20764 TAP_TAPCELL_ROW_106_2346
*20765 TAP_TAPCELL_ROW_106_2347
*20766 TAP_TAPCELL_ROW_107_2348
*20767 TAP_TAPCELL_ROW_107_2349
*20768 TAP_TAPCELL_ROW_107_2350
*20769 TAP_TAPCELL_ROW_107_2351
*20770 TAP_TAPCELL_ROW_107_2352
*20771 TAP_TAPCELL_ROW_107_2353
*20772 TAP_TAPCELL_ROW_107_2354
*20773 TAP_TAPCELL_ROW_107_2355
*20774 TAP_TAPCELL_ROW_107_2356
*20775 TAP_TAPCELL_ROW_107_2357
*20776 TAP_TAPCELL_ROW_107_2358
*20777 TAP_TAPCELL_ROW_107_2359
*20778 TAP_TAPCELL_ROW_107_2360
*20779 TAP_TAPCELL_ROW_107_2361
*20780 TAP_TAPCELL_ROW_107_2362
*20781 TAP_TAPCELL_ROW_107_2363
*20782 TAP_TAPCELL_ROW_107_2364
*20783 TAP_TAPCELL_ROW_107_2365
*20784 TAP_TAPCELL_ROW_108_2366
*20785 TAP_TAPCELL_ROW_108_2367
*20786 TAP_TAPCELL_ROW_108_2368
*20787 TAP_TAPCELL_ROW_108_2369
*20788 TAP_TAPCELL_ROW_108_2370
*20789 TAP_TAPCELL_ROW_108_2371
*20790 TAP_TAPCELL_ROW_108_2372
*20791 TAP_TAPCELL_ROW_108_2373
*20792 TAP_TAPCELL_ROW_108_2374
*20793 TAP_TAPCELL_ROW_108_2375
*20794 TAP_TAPCELL_ROW_108_2376
*20795 TAP_TAPCELL_ROW_108_2377
*20796 TAP_TAPCELL_ROW_108_2378
*20797 TAP_TAPCELL_ROW_108_2379
*20798 TAP_TAPCELL_ROW_108_2380
*20799 TAP_TAPCELL_ROW_108_2381
*20800 TAP_TAPCELL_ROW_108_2382
*20801 TAP_TAPCELL_ROW_108_2383
*20802 TAP_TAPCELL_ROW_108_2384
*20803 TAP_TAPCELL_ROW_109_2385
*20804 TAP_TAPCELL_ROW_109_2386
*20805 TAP_TAPCELL_ROW_109_2387
*20806 TAP_TAPCELL_ROW_109_2388
*20807 TAP_TAPCELL_ROW_109_2389
*20808 TAP_TAPCELL_ROW_109_2390
*20809 TAP_TAPCELL_ROW_109_2391
*20810 TAP_TAPCELL_ROW_109_2392
*20811 TAP_TAPCELL_ROW_109_2393
*20812 TAP_TAPCELL_ROW_109_2394
*20813 TAP_TAPCELL_ROW_109_2395
*20814 TAP_TAPCELL_ROW_109_2396
*20815 TAP_TAPCELL_ROW_109_2397
*20816 TAP_TAPCELL_ROW_109_2398
*20817 TAP_TAPCELL_ROW_109_2399
*20818 TAP_TAPCELL_ROW_109_2400
*20819 TAP_TAPCELL_ROW_109_2401
*20820 TAP_TAPCELL_ROW_109_2402
*20821 TAP_TAPCELL_ROW_10_553
*20822 TAP_TAPCELL_ROW_10_554
*20823 TAP_TAPCELL_ROW_10_555
*20824 TAP_TAPCELL_ROW_10_556
*20825 TAP_TAPCELL_ROW_10_557
*20826 TAP_TAPCELL_ROW_10_558
*20827 TAP_TAPCELL_ROW_10_559
*20828 TAP_TAPCELL_ROW_10_560
*20829 TAP_TAPCELL_ROW_10_561
*20830 TAP_TAPCELL_ROW_10_562
*20831 TAP_TAPCELL_ROW_10_563
*20832 TAP_TAPCELL_ROW_10_564
*20833 TAP_TAPCELL_ROW_10_565
*20834 TAP_TAPCELL_ROW_10_566
*20835 TAP_TAPCELL_ROW_10_567
*20836 TAP_TAPCELL_ROW_10_568
*20837 TAP_TAPCELL_ROW_10_569
*20838 TAP_TAPCELL_ROW_10_570
*20839 TAP_TAPCELL_ROW_10_571
*20840 TAP_TAPCELL_ROW_110_2403
*20841 TAP_TAPCELL_ROW_110_2404
*20842 TAP_TAPCELL_ROW_110_2405
*20843 TAP_TAPCELL_ROW_110_2406
*20844 TAP_TAPCELL_ROW_110_2407
*20845 TAP_TAPCELL_ROW_110_2408
*20846 TAP_TAPCELL_ROW_110_2409
*20847 TAP_TAPCELL_ROW_110_2410
*20848 TAP_TAPCELL_ROW_110_2411
*20849 TAP_TAPCELL_ROW_110_2412
*20850 TAP_TAPCELL_ROW_110_2413
*20851 TAP_TAPCELL_ROW_110_2414
*20852 TAP_TAPCELL_ROW_110_2415
*20853 TAP_TAPCELL_ROW_110_2416
*20854 TAP_TAPCELL_ROW_110_2417
*20855 TAP_TAPCELL_ROW_110_2418
*20856 TAP_TAPCELL_ROW_110_2419
*20857 TAP_TAPCELL_ROW_110_2420
*20858 TAP_TAPCELL_ROW_110_2421
*20859 TAP_TAPCELL_ROW_111_2422
*20860 TAP_TAPCELL_ROW_111_2423
*20861 TAP_TAPCELL_ROW_111_2424
*20862 TAP_TAPCELL_ROW_111_2425
*20863 TAP_TAPCELL_ROW_111_2426
*20864 TAP_TAPCELL_ROW_111_2427
*20865 TAP_TAPCELL_ROW_111_2428
*20866 TAP_TAPCELL_ROW_111_2429
*20867 TAP_TAPCELL_ROW_111_2430
*20868 TAP_TAPCELL_ROW_111_2431
*20869 TAP_TAPCELL_ROW_111_2432
*20870 TAP_TAPCELL_ROW_111_2433
*20871 TAP_TAPCELL_ROW_111_2434
*20872 TAP_TAPCELL_ROW_111_2435
*20873 TAP_TAPCELL_ROW_111_2436
*20874 TAP_TAPCELL_ROW_111_2437
*20875 TAP_TAPCELL_ROW_111_2438
*20876 TAP_TAPCELL_ROW_111_2439
*20877 TAP_TAPCELL_ROW_112_2440
*20878 TAP_TAPCELL_ROW_112_2441
*20879 TAP_TAPCELL_ROW_112_2442
*20880 TAP_TAPCELL_ROW_112_2443
*20881 TAP_TAPCELL_ROW_112_2444
*20882 TAP_TAPCELL_ROW_112_2445
*20883 TAP_TAPCELL_ROW_112_2446
*20884 TAP_TAPCELL_ROW_112_2447
*20885 TAP_TAPCELL_ROW_112_2448
*20886 TAP_TAPCELL_ROW_112_2449
*20887 TAP_TAPCELL_ROW_112_2450
*20888 TAP_TAPCELL_ROW_112_2451
*20889 TAP_TAPCELL_ROW_112_2452
*20890 TAP_TAPCELL_ROW_112_2453
*20891 TAP_TAPCELL_ROW_112_2454
*20892 TAP_TAPCELL_ROW_112_2455
*20893 TAP_TAPCELL_ROW_112_2456
*20894 TAP_TAPCELL_ROW_112_2457
*20895 TAP_TAPCELL_ROW_112_2458
*20896 TAP_TAPCELL_ROW_113_2459
*20897 TAP_TAPCELL_ROW_113_2460
*20898 TAP_TAPCELL_ROW_113_2461
*20899 TAP_TAPCELL_ROW_113_2462
*20900 TAP_TAPCELL_ROW_113_2463
*20901 TAP_TAPCELL_ROW_113_2464
*20902 TAP_TAPCELL_ROW_113_2465
*20903 TAP_TAPCELL_ROW_113_2466
*20904 TAP_TAPCELL_ROW_113_2467
*20905 TAP_TAPCELL_ROW_113_2468
*20906 TAP_TAPCELL_ROW_113_2469
*20907 TAP_TAPCELL_ROW_113_2470
*20908 TAP_TAPCELL_ROW_113_2471
*20909 TAP_TAPCELL_ROW_113_2472
*20910 TAP_TAPCELL_ROW_113_2473
*20911 TAP_TAPCELL_ROW_113_2474
*20912 TAP_TAPCELL_ROW_113_2475
*20913 TAP_TAPCELL_ROW_113_2476
*20914 TAP_TAPCELL_ROW_114_2477
*20915 TAP_TAPCELL_ROW_114_2478
*20916 TAP_TAPCELL_ROW_114_2479
*20917 TAP_TAPCELL_ROW_114_2480
*20918 TAP_TAPCELL_ROW_114_2481
*20919 TAP_TAPCELL_ROW_114_2482
*20920 TAP_TAPCELL_ROW_114_2483
*20921 TAP_TAPCELL_ROW_114_2484
*20922 TAP_TAPCELL_ROW_114_2485
*20923 TAP_TAPCELL_ROW_114_2486
*20924 TAP_TAPCELL_ROW_114_2487
*20925 TAP_TAPCELL_ROW_114_2488
*20926 TAP_TAPCELL_ROW_114_2489
*20927 TAP_TAPCELL_ROW_114_2490
*20928 TAP_TAPCELL_ROW_114_2491
*20929 TAP_TAPCELL_ROW_114_2492
*20930 TAP_TAPCELL_ROW_114_2493
*20931 TAP_TAPCELL_ROW_114_2494
*20932 TAP_TAPCELL_ROW_114_2495
*20933 TAP_TAPCELL_ROW_115_2496
*20934 TAP_TAPCELL_ROW_115_2497
*20935 TAP_TAPCELL_ROW_115_2498
*20936 TAP_TAPCELL_ROW_115_2499
*20937 TAP_TAPCELL_ROW_115_2500
*20938 TAP_TAPCELL_ROW_115_2501
*20939 TAP_TAPCELL_ROW_115_2502
*20940 TAP_TAPCELL_ROW_115_2503
*20941 TAP_TAPCELL_ROW_115_2504
*20942 TAP_TAPCELL_ROW_115_2505
*20943 TAP_TAPCELL_ROW_115_2506
*20944 TAP_TAPCELL_ROW_115_2507
*20945 TAP_TAPCELL_ROW_115_2508
*20946 TAP_TAPCELL_ROW_115_2509
*20947 TAP_TAPCELL_ROW_115_2510
*20948 TAP_TAPCELL_ROW_115_2511
*20949 TAP_TAPCELL_ROW_115_2512
*20950 TAP_TAPCELL_ROW_115_2513
*20951 TAP_TAPCELL_ROW_116_2514
*20952 TAP_TAPCELL_ROW_116_2515
*20953 TAP_TAPCELL_ROW_116_2516
*20954 TAP_TAPCELL_ROW_116_2517
*20955 TAP_TAPCELL_ROW_116_2518
*20956 TAP_TAPCELL_ROW_116_2519
*20957 TAP_TAPCELL_ROW_116_2520
*20958 TAP_TAPCELL_ROW_116_2521
*20959 TAP_TAPCELL_ROW_116_2522
*20960 TAP_TAPCELL_ROW_116_2523
*20961 TAP_TAPCELL_ROW_116_2524
*20962 TAP_TAPCELL_ROW_116_2525
*20963 TAP_TAPCELL_ROW_116_2526
*20964 TAP_TAPCELL_ROW_116_2527
*20965 TAP_TAPCELL_ROW_116_2528
*20966 TAP_TAPCELL_ROW_116_2529
*20967 TAP_TAPCELL_ROW_116_2530
*20968 TAP_TAPCELL_ROW_116_2531
*20969 TAP_TAPCELL_ROW_116_2532
*20970 TAP_TAPCELL_ROW_117_2533
*20971 TAP_TAPCELL_ROW_117_2534
*20972 TAP_TAPCELL_ROW_117_2535
*20973 TAP_TAPCELL_ROW_117_2536
*20974 TAP_TAPCELL_ROW_117_2537
*20975 TAP_TAPCELL_ROW_117_2538
*20976 TAP_TAPCELL_ROW_117_2539
*20977 TAP_TAPCELL_ROW_117_2540
*20978 TAP_TAPCELL_ROW_117_2541
*20979 TAP_TAPCELL_ROW_117_2542
*20980 TAP_TAPCELL_ROW_117_2543
*20981 TAP_TAPCELL_ROW_117_2544
*20982 TAP_TAPCELL_ROW_117_2545
*20983 TAP_TAPCELL_ROW_117_2546
*20984 TAP_TAPCELL_ROW_117_2547
*20985 TAP_TAPCELL_ROW_117_2548
*20986 TAP_TAPCELL_ROW_117_2549
*20987 TAP_TAPCELL_ROW_117_2550
*20988 TAP_TAPCELL_ROW_118_2551
*20989 TAP_TAPCELL_ROW_118_2552
*20990 TAP_TAPCELL_ROW_118_2553
*20991 TAP_TAPCELL_ROW_118_2554
*20992 TAP_TAPCELL_ROW_118_2555
*20993 TAP_TAPCELL_ROW_118_2556
*20994 TAP_TAPCELL_ROW_118_2557
*20995 TAP_TAPCELL_ROW_118_2558
*20996 TAP_TAPCELL_ROW_118_2559
*20997 TAP_TAPCELL_ROW_118_2560
*20998 TAP_TAPCELL_ROW_118_2561
*20999 TAP_TAPCELL_ROW_118_2562
*21000 TAP_TAPCELL_ROW_118_2563
*21001 TAP_TAPCELL_ROW_118_2564
*21002 TAP_TAPCELL_ROW_118_2565
*21003 TAP_TAPCELL_ROW_118_2566
*21004 TAP_TAPCELL_ROW_118_2567
*21005 TAP_TAPCELL_ROW_118_2568
*21006 TAP_TAPCELL_ROW_118_2569
*21007 TAP_TAPCELL_ROW_119_2570
*21008 TAP_TAPCELL_ROW_119_2571
*21009 TAP_TAPCELL_ROW_119_2572
*21010 TAP_TAPCELL_ROW_119_2573
*21011 TAP_TAPCELL_ROW_119_2574
*21012 TAP_TAPCELL_ROW_119_2575
*21013 TAP_TAPCELL_ROW_119_2576
*21014 TAP_TAPCELL_ROW_119_2577
*21015 TAP_TAPCELL_ROW_119_2578
*21016 TAP_TAPCELL_ROW_119_2579
*21017 TAP_TAPCELL_ROW_119_2580
*21018 TAP_TAPCELL_ROW_119_2581
*21019 TAP_TAPCELL_ROW_119_2582
*21020 TAP_TAPCELL_ROW_119_2583
*21021 TAP_TAPCELL_ROW_119_2584
*21022 TAP_TAPCELL_ROW_119_2585
*21023 TAP_TAPCELL_ROW_119_2586
*21024 TAP_TAPCELL_ROW_119_2587
*21025 TAP_TAPCELL_ROW_11_572
*21026 TAP_TAPCELL_ROW_11_573
*21027 TAP_TAPCELL_ROW_11_574
*21028 TAP_TAPCELL_ROW_11_575
*21029 TAP_TAPCELL_ROW_11_576
*21030 TAP_TAPCELL_ROW_11_577
*21031 TAP_TAPCELL_ROW_11_578
*21032 TAP_TAPCELL_ROW_11_579
*21033 TAP_TAPCELL_ROW_11_580
*21034 TAP_TAPCELL_ROW_11_581
*21035 TAP_TAPCELL_ROW_11_582
*21036 TAP_TAPCELL_ROW_11_583
*21037 TAP_TAPCELL_ROW_11_584
*21038 TAP_TAPCELL_ROW_11_585
*21039 TAP_TAPCELL_ROW_11_586
*21040 TAP_TAPCELL_ROW_11_587
*21041 TAP_TAPCELL_ROW_11_588
*21042 TAP_TAPCELL_ROW_11_589
*21043 TAP_TAPCELL_ROW_120_2588
*21044 TAP_TAPCELL_ROW_120_2589
*21045 TAP_TAPCELL_ROW_120_2590
*21046 TAP_TAPCELL_ROW_120_2591
*21047 TAP_TAPCELL_ROW_120_2592
*21048 TAP_TAPCELL_ROW_120_2593
*21049 TAP_TAPCELL_ROW_120_2594
*21050 TAP_TAPCELL_ROW_120_2595
*21051 TAP_TAPCELL_ROW_120_2596
*21052 TAP_TAPCELL_ROW_120_2597
*21053 TAP_TAPCELL_ROW_120_2598
*21054 TAP_TAPCELL_ROW_120_2599
*21055 TAP_TAPCELL_ROW_120_2600
*21056 TAP_TAPCELL_ROW_120_2601
*21057 TAP_TAPCELL_ROW_120_2602
*21058 TAP_TAPCELL_ROW_120_2603
*21059 TAP_TAPCELL_ROW_120_2604
*21060 TAP_TAPCELL_ROW_120_2605
*21061 TAP_TAPCELL_ROW_120_2606
*21062 TAP_TAPCELL_ROW_121_2607
*21063 TAP_TAPCELL_ROW_121_2608
*21064 TAP_TAPCELL_ROW_121_2609
*21065 TAP_TAPCELL_ROW_121_2610
*21066 TAP_TAPCELL_ROW_121_2611
*21067 TAP_TAPCELL_ROW_121_2612
*21068 TAP_TAPCELL_ROW_121_2613
*21069 TAP_TAPCELL_ROW_121_2614
*21070 TAP_TAPCELL_ROW_121_2615
*21071 TAP_TAPCELL_ROW_121_2616
*21072 TAP_TAPCELL_ROW_121_2617
*21073 TAP_TAPCELL_ROW_121_2618
*21074 TAP_TAPCELL_ROW_121_2619
*21075 TAP_TAPCELL_ROW_121_2620
*21076 TAP_TAPCELL_ROW_121_2621
*21077 TAP_TAPCELL_ROW_121_2622
*21078 TAP_TAPCELL_ROW_121_2623
*21079 TAP_TAPCELL_ROW_121_2624
*21080 TAP_TAPCELL_ROW_122_2625
*21081 TAP_TAPCELL_ROW_122_2626
*21082 TAP_TAPCELL_ROW_122_2627
*21083 TAP_TAPCELL_ROW_122_2628
*21084 TAP_TAPCELL_ROW_122_2629
*21085 TAP_TAPCELL_ROW_122_2630
*21086 TAP_TAPCELL_ROW_122_2631
*21087 TAP_TAPCELL_ROW_122_2632
*21088 TAP_TAPCELL_ROW_122_2633
*21089 TAP_TAPCELL_ROW_122_2634
*21090 TAP_TAPCELL_ROW_122_2635
*21091 TAP_TAPCELL_ROW_122_2636
*21092 TAP_TAPCELL_ROW_122_2637
*21093 TAP_TAPCELL_ROW_122_2638
*21094 TAP_TAPCELL_ROW_122_2639
*21095 TAP_TAPCELL_ROW_122_2640
*21096 TAP_TAPCELL_ROW_122_2641
*21097 TAP_TAPCELL_ROW_122_2642
*21098 TAP_TAPCELL_ROW_122_2643
*21099 TAP_TAPCELL_ROW_123_2644
*21100 TAP_TAPCELL_ROW_123_2645
*21101 TAP_TAPCELL_ROW_123_2646
*21102 TAP_TAPCELL_ROW_123_2647
*21103 TAP_TAPCELL_ROW_123_2648
*21104 TAP_TAPCELL_ROW_123_2649
*21105 TAP_TAPCELL_ROW_123_2650
*21106 TAP_TAPCELL_ROW_123_2651
*21107 TAP_TAPCELL_ROW_123_2652
*21108 TAP_TAPCELL_ROW_123_2653
*21109 TAP_TAPCELL_ROW_123_2654
*21110 TAP_TAPCELL_ROW_123_2655
*21111 TAP_TAPCELL_ROW_123_2656
*21112 TAP_TAPCELL_ROW_123_2657
*21113 TAP_TAPCELL_ROW_123_2658
*21114 TAP_TAPCELL_ROW_123_2659
*21115 TAP_TAPCELL_ROW_123_2660
*21116 TAP_TAPCELL_ROW_123_2661
*21117 TAP_TAPCELL_ROW_124_2662
*21118 TAP_TAPCELL_ROW_124_2663
*21119 TAP_TAPCELL_ROW_124_2664
*21120 TAP_TAPCELL_ROW_124_2665
*21121 TAP_TAPCELL_ROW_124_2666
*21122 TAP_TAPCELL_ROW_124_2667
*21123 TAP_TAPCELL_ROW_124_2668
*21124 TAP_TAPCELL_ROW_124_2669
*21125 TAP_TAPCELL_ROW_124_2670
*21126 TAP_TAPCELL_ROW_124_2671
*21127 TAP_TAPCELL_ROW_124_2672
*21128 TAP_TAPCELL_ROW_124_2673
*21129 TAP_TAPCELL_ROW_124_2674
*21130 TAP_TAPCELL_ROW_124_2675
*21131 TAP_TAPCELL_ROW_124_2676
*21132 TAP_TAPCELL_ROW_124_2677
*21133 TAP_TAPCELL_ROW_124_2678
*21134 TAP_TAPCELL_ROW_124_2679
*21135 TAP_TAPCELL_ROW_124_2680
*21136 TAP_TAPCELL_ROW_125_2681
*21137 TAP_TAPCELL_ROW_125_2682
*21138 TAP_TAPCELL_ROW_125_2683
*21139 TAP_TAPCELL_ROW_125_2684
*21140 TAP_TAPCELL_ROW_125_2685
*21141 TAP_TAPCELL_ROW_125_2686
*21142 TAP_TAPCELL_ROW_125_2687
*21143 TAP_TAPCELL_ROW_125_2688
*21144 TAP_TAPCELL_ROW_125_2689
*21145 TAP_TAPCELL_ROW_125_2690
*21146 TAP_TAPCELL_ROW_125_2691
*21147 TAP_TAPCELL_ROW_125_2692
*21148 TAP_TAPCELL_ROW_125_2693
*21149 TAP_TAPCELL_ROW_125_2694
*21150 TAP_TAPCELL_ROW_125_2695
*21151 TAP_TAPCELL_ROW_125_2696
*21152 TAP_TAPCELL_ROW_125_2697
*21153 TAP_TAPCELL_ROW_125_2698
*21154 TAP_TAPCELL_ROW_126_2699
*21155 TAP_TAPCELL_ROW_126_2700
*21156 TAP_TAPCELL_ROW_126_2701
*21157 TAP_TAPCELL_ROW_126_2702
*21158 TAP_TAPCELL_ROW_126_2703
*21159 TAP_TAPCELL_ROW_126_2704
*21160 TAP_TAPCELL_ROW_126_2705
*21161 TAP_TAPCELL_ROW_126_2706
*21162 TAP_TAPCELL_ROW_126_2707
*21163 TAP_TAPCELL_ROW_126_2708
*21164 TAP_TAPCELL_ROW_126_2709
*21165 TAP_TAPCELL_ROW_126_2710
*21166 TAP_TAPCELL_ROW_126_2711
*21167 TAP_TAPCELL_ROW_126_2712
*21168 TAP_TAPCELL_ROW_126_2713
*21169 TAP_TAPCELL_ROW_126_2714
*21170 TAP_TAPCELL_ROW_126_2715
*21171 TAP_TAPCELL_ROW_126_2716
*21172 TAP_TAPCELL_ROW_126_2717
*21173 TAP_TAPCELL_ROW_127_2718
*21174 TAP_TAPCELL_ROW_127_2719
*21175 TAP_TAPCELL_ROW_127_2720
*21176 TAP_TAPCELL_ROW_127_2721
*21177 TAP_TAPCELL_ROW_127_2722
*21178 TAP_TAPCELL_ROW_127_2723
*21179 TAP_TAPCELL_ROW_127_2724
*21180 TAP_TAPCELL_ROW_127_2725
*21181 TAP_TAPCELL_ROW_127_2726
*21182 TAP_TAPCELL_ROW_127_2727
*21183 TAP_TAPCELL_ROW_127_2728
*21184 TAP_TAPCELL_ROW_127_2729
*21185 TAP_TAPCELL_ROW_127_2730
*21186 TAP_TAPCELL_ROW_127_2731
*21187 TAP_TAPCELL_ROW_127_2732
*21188 TAP_TAPCELL_ROW_127_2733
*21189 TAP_TAPCELL_ROW_127_2734
*21190 TAP_TAPCELL_ROW_127_2735
*21191 TAP_TAPCELL_ROW_128_2736
*21192 TAP_TAPCELL_ROW_128_2737
*21193 TAP_TAPCELL_ROW_128_2738
*21194 TAP_TAPCELL_ROW_128_2739
*21195 TAP_TAPCELL_ROW_128_2740
*21196 TAP_TAPCELL_ROW_128_2741
*21197 TAP_TAPCELL_ROW_128_2742
*21198 TAP_TAPCELL_ROW_128_2743
*21199 TAP_TAPCELL_ROW_128_2744
*21200 TAP_TAPCELL_ROW_128_2745
*21201 TAP_TAPCELL_ROW_128_2746
*21202 TAP_TAPCELL_ROW_128_2747
*21203 TAP_TAPCELL_ROW_128_2748
*21204 TAP_TAPCELL_ROW_128_2749
*21205 TAP_TAPCELL_ROW_128_2750
*21206 TAP_TAPCELL_ROW_128_2751
*21207 TAP_TAPCELL_ROW_128_2752
*21208 TAP_TAPCELL_ROW_128_2753
*21209 TAP_TAPCELL_ROW_128_2754
*21210 TAP_TAPCELL_ROW_129_2755
*21211 TAP_TAPCELL_ROW_129_2756
*21212 TAP_TAPCELL_ROW_129_2757
*21213 TAP_TAPCELL_ROW_129_2758
*21214 TAP_TAPCELL_ROW_129_2759
*21215 TAP_TAPCELL_ROW_129_2760
*21216 TAP_TAPCELL_ROW_129_2761
*21217 TAP_TAPCELL_ROW_129_2762
*21218 TAP_TAPCELL_ROW_129_2763
*21219 TAP_TAPCELL_ROW_129_2764
*21220 TAP_TAPCELL_ROW_129_2765
*21221 TAP_TAPCELL_ROW_129_2766
*21222 TAP_TAPCELL_ROW_129_2767
*21223 TAP_TAPCELL_ROW_129_2768
*21224 TAP_TAPCELL_ROW_129_2769
*21225 TAP_TAPCELL_ROW_129_2770
*21226 TAP_TAPCELL_ROW_129_2771
*21227 TAP_TAPCELL_ROW_129_2772
*21228 TAP_TAPCELL_ROW_12_590
*21229 TAP_TAPCELL_ROW_12_591
*21230 TAP_TAPCELL_ROW_12_592
*21231 TAP_TAPCELL_ROW_12_593
*21232 TAP_TAPCELL_ROW_12_594
*21233 TAP_TAPCELL_ROW_12_595
*21234 TAP_TAPCELL_ROW_12_596
*21235 TAP_TAPCELL_ROW_12_597
*21236 TAP_TAPCELL_ROW_12_598
*21237 TAP_TAPCELL_ROW_12_599
*21238 TAP_TAPCELL_ROW_12_600
*21239 TAP_TAPCELL_ROW_12_601
*21240 TAP_TAPCELL_ROW_12_602
*21241 TAP_TAPCELL_ROW_12_603
*21242 TAP_TAPCELL_ROW_12_604
*21243 TAP_TAPCELL_ROW_12_605
*21244 TAP_TAPCELL_ROW_12_606
*21245 TAP_TAPCELL_ROW_12_607
*21246 TAP_TAPCELL_ROW_12_608
*21247 TAP_TAPCELL_ROW_130_2773
*21248 TAP_TAPCELL_ROW_130_2774
*21249 TAP_TAPCELL_ROW_130_2775
*21250 TAP_TAPCELL_ROW_130_2776
*21251 TAP_TAPCELL_ROW_130_2777
*21252 TAP_TAPCELL_ROW_130_2778
*21253 TAP_TAPCELL_ROW_130_2779
*21254 TAP_TAPCELL_ROW_130_2780
*21255 TAP_TAPCELL_ROW_130_2781
*21256 TAP_TAPCELL_ROW_130_2782
*21257 TAP_TAPCELL_ROW_130_2783
*21258 TAP_TAPCELL_ROW_130_2784
*21259 TAP_TAPCELL_ROW_130_2785
*21260 TAP_TAPCELL_ROW_130_2786
*21261 TAP_TAPCELL_ROW_130_2787
*21262 TAP_TAPCELL_ROW_130_2788
*21263 TAP_TAPCELL_ROW_130_2789
*21264 TAP_TAPCELL_ROW_130_2790
*21265 TAP_TAPCELL_ROW_130_2791
*21266 TAP_TAPCELL_ROW_131_2792
*21267 TAP_TAPCELL_ROW_131_2793
*21268 TAP_TAPCELL_ROW_131_2794
*21269 TAP_TAPCELL_ROW_131_2795
*21270 TAP_TAPCELL_ROW_131_2796
*21271 TAP_TAPCELL_ROW_131_2797
*21272 TAP_TAPCELL_ROW_131_2798
*21273 TAP_TAPCELL_ROW_131_2799
*21274 TAP_TAPCELL_ROW_131_2800
*21275 TAP_TAPCELL_ROW_131_2801
*21276 TAP_TAPCELL_ROW_131_2802
*21277 TAP_TAPCELL_ROW_131_2803
*21278 TAP_TAPCELL_ROW_131_2804
*21279 TAP_TAPCELL_ROW_131_2805
*21280 TAP_TAPCELL_ROW_131_2806
*21281 TAP_TAPCELL_ROW_131_2807
*21282 TAP_TAPCELL_ROW_131_2808
*21283 TAP_TAPCELL_ROW_131_2809
*21284 TAP_TAPCELL_ROW_132_2810
*21285 TAP_TAPCELL_ROW_132_2811
*21286 TAP_TAPCELL_ROW_132_2812
*21287 TAP_TAPCELL_ROW_132_2813
*21288 TAP_TAPCELL_ROW_132_2814
*21289 TAP_TAPCELL_ROW_132_2815
*21290 TAP_TAPCELL_ROW_132_2816
*21291 TAP_TAPCELL_ROW_132_2817
*21292 TAP_TAPCELL_ROW_132_2818
*21293 TAP_TAPCELL_ROW_132_2819
*21294 TAP_TAPCELL_ROW_132_2820
*21295 TAP_TAPCELL_ROW_132_2821
*21296 TAP_TAPCELL_ROW_132_2822
*21297 TAP_TAPCELL_ROW_132_2823
*21298 TAP_TAPCELL_ROW_132_2824
*21299 TAP_TAPCELL_ROW_132_2825
*21300 TAP_TAPCELL_ROW_132_2826
*21301 TAP_TAPCELL_ROW_132_2827
*21302 TAP_TAPCELL_ROW_132_2828
*21303 TAP_TAPCELL_ROW_133_2829
*21304 TAP_TAPCELL_ROW_133_2830
*21305 TAP_TAPCELL_ROW_133_2831
*21306 TAP_TAPCELL_ROW_133_2832
*21307 TAP_TAPCELL_ROW_133_2833
*21308 TAP_TAPCELL_ROW_133_2834
*21309 TAP_TAPCELL_ROW_133_2835
*21310 TAP_TAPCELL_ROW_133_2836
*21311 TAP_TAPCELL_ROW_133_2837
*21312 TAP_TAPCELL_ROW_133_2838
*21313 TAP_TAPCELL_ROW_133_2839
*21314 TAP_TAPCELL_ROW_133_2840
*21315 TAP_TAPCELL_ROW_133_2841
*21316 TAP_TAPCELL_ROW_133_2842
*21317 TAP_TAPCELL_ROW_133_2843
*21318 TAP_TAPCELL_ROW_133_2844
*21319 TAP_TAPCELL_ROW_133_2845
*21320 TAP_TAPCELL_ROW_133_2846
*21321 TAP_TAPCELL_ROW_134_2847
*21322 TAP_TAPCELL_ROW_134_2848
*21323 TAP_TAPCELL_ROW_134_2849
*21324 TAP_TAPCELL_ROW_134_2850
*21325 TAP_TAPCELL_ROW_134_2851
*21326 TAP_TAPCELL_ROW_134_2852
*21327 TAP_TAPCELL_ROW_134_2853
*21328 TAP_TAPCELL_ROW_134_2854
*21329 TAP_TAPCELL_ROW_134_2855
*21330 TAP_TAPCELL_ROW_134_2856
*21331 TAP_TAPCELL_ROW_134_2857
*21332 TAP_TAPCELL_ROW_134_2858
*21333 TAP_TAPCELL_ROW_134_2859
*21334 TAP_TAPCELL_ROW_134_2860
*21335 TAP_TAPCELL_ROW_134_2861
*21336 TAP_TAPCELL_ROW_134_2862
*21337 TAP_TAPCELL_ROW_134_2863
*21338 TAP_TAPCELL_ROW_134_2864
*21339 TAP_TAPCELL_ROW_134_2865
*21340 TAP_TAPCELL_ROW_135_2866
*21341 TAP_TAPCELL_ROW_135_2867
*21342 TAP_TAPCELL_ROW_135_2868
*21343 TAP_TAPCELL_ROW_135_2869
*21344 TAP_TAPCELL_ROW_135_2870
*21345 TAP_TAPCELL_ROW_135_2871
*21346 TAP_TAPCELL_ROW_135_2872
*21347 TAP_TAPCELL_ROW_135_2873
*21348 TAP_TAPCELL_ROW_135_2874
*21349 TAP_TAPCELL_ROW_135_2875
*21350 TAP_TAPCELL_ROW_135_2876
*21351 TAP_TAPCELL_ROW_135_2877
*21352 TAP_TAPCELL_ROW_135_2878
*21353 TAP_TAPCELL_ROW_135_2879
*21354 TAP_TAPCELL_ROW_135_2880
*21355 TAP_TAPCELL_ROW_135_2881
*21356 TAP_TAPCELL_ROW_135_2882
*21357 TAP_TAPCELL_ROW_135_2883
*21358 TAP_TAPCELL_ROW_136_2884
*21359 TAP_TAPCELL_ROW_136_2885
*21360 TAP_TAPCELL_ROW_136_2886
*21361 TAP_TAPCELL_ROW_136_2887
*21362 TAP_TAPCELL_ROW_136_2888
*21363 TAP_TAPCELL_ROW_136_2889
*21364 TAP_TAPCELL_ROW_136_2890
*21365 TAP_TAPCELL_ROW_136_2891
*21366 TAP_TAPCELL_ROW_136_2892
*21367 TAP_TAPCELL_ROW_136_2893
*21368 TAP_TAPCELL_ROW_136_2894
*21369 TAP_TAPCELL_ROW_136_2895
*21370 TAP_TAPCELL_ROW_136_2896
*21371 TAP_TAPCELL_ROW_136_2897
*21372 TAP_TAPCELL_ROW_136_2898
*21373 TAP_TAPCELL_ROW_136_2899
*21374 TAP_TAPCELL_ROW_136_2900
*21375 TAP_TAPCELL_ROW_136_2901
*21376 TAP_TAPCELL_ROW_136_2902
*21377 TAP_TAPCELL_ROW_137_2903
*21378 TAP_TAPCELL_ROW_137_2904
*21379 TAP_TAPCELL_ROW_137_2905
*21380 TAP_TAPCELL_ROW_137_2906
*21381 TAP_TAPCELL_ROW_137_2907
*21382 TAP_TAPCELL_ROW_137_2908
*21383 TAP_TAPCELL_ROW_137_2909
*21384 TAP_TAPCELL_ROW_137_2910
*21385 TAP_TAPCELL_ROW_137_2911
*21386 TAP_TAPCELL_ROW_137_2912
*21387 TAP_TAPCELL_ROW_137_2913
*21388 TAP_TAPCELL_ROW_137_2914
*21389 TAP_TAPCELL_ROW_137_2915
*21390 TAP_TAPCELL_ROW_137_2916
*21391 TAP_TAPCELL_ROW_137_2917
*21392 TAP_TAPCELL_ROW_137_2918
*21393 TAP_TAPCELL_ROW_137_2919
*21394 TAP_TAPCELL_ROW_137_2920
*21395 TAP_TAPCELL_ROW_138_2921
*21396 TAP_TAPCELL_ROW_138_2922
*21397 TAP_TAPCELL_ROW_138_2923
*21398 TAP_TAPCELL_ROW_138_2924
*21399 TAP_TAPCELL_ROW_138_2925
*21400 TAP_TAPCELL_ROW_138_2926
*21401 TAP_TAPCELL_ROW_138_2927
*21402 TAP_TAPCELL_ROW_138_2928
*21403 TAP_TAPCELL_ROW_138_2929
*21404 TAP_TAPCELL_ROW_138_2930
*21405 TAP_TAPCELL_ROW_138_2931
*21406 TAP_TAPCELL_ROW_138_2932
*21407 TAP_TAPCELL_ROW_138_2933
*21408 TAP_TAPCELL_ROW_138_2934
*21409 TAP_TAPCELL_ROW_138_2935
*21410 TAP_TAPCELL_ROW_138_2936
*21411 TAP_TAPCELL_ROW_138_2937
*21412 TAP_TAPCELL_ROW_138_2938
*21413 TAP_TAPCELL_ROW_138_2939
*21414 TAP_TAPCELL_ROW_139_2940
*21415 TAP_TAPCELL_ROW_139_2941
*21416 TAP_TAPCELL_ROW_139_2942
*21417 TAP_TAPCELL_ROW_139_2943
*21418 TAP_TAPCELL_ROW_139_2944
*21419 TAP_TAPCELL_ROW_139_2945
*21420 TAP_TAPCELL_ROW_139_2946
*21421 TAP_TAPCELL_ROW_139_2947
*21422 TAP_TAPCELL_ROW_139_2948
*21423 TAP_TAPCELL_ROW_139_2949
*21424 TAP_TAPCELL_ROW_139_2950
*21425 TAP_TAPCELL_ROW_139_2951
*21426 TAP_TAPCELL_ROW_139_2952
*21427 TAP_TAPCELL_ROW_139_2953
*21428 TAP_TAPCELL_ROW_139_2954
*21429 TAP_TAPCELL_ROW_139_2955
*21430 TAP_TAPCELL_ROW_139_2956
*21431 TAP_TAPCELL_ROW_139_2957
*21432 TAP_TAPCELL_ROW_13_609
*21433 TAP_TAPCELL_ROW_13_610
*21434 TAP_TAPCELL_ROW_13_611
*21435 TAP_TAPCELL_ROW_13_612
*21436 TAP_TAPCELL_ROW_13_613
*21437 TAP_TAPCELL_ROW_13_614
*21438 TAP_TAPCELL_ROW_13_615
*21439 TAP_TAPCELL_ROW_13_616
*21440 TAP_TAPCELL_ROW_13_617
*21441 TAP_TAPCELL_ROW_13_618
*21442 TAP_TAPCELL_ROW_13_619
*21443 TAP_TAPCELL_ROW_13_620
*21444 TAP_TAPCELL_ROW_13_621
*21445 TAP_TAPCELL_ROW_13_622
*21446 TAP_TAPCELL_ROW_13_623
*21447 TAP_TAPCELL_ROW_13_624
*21448 TAP_TAPCELL_ROW_13_625
*21449 TAP_TAPCELL_ROW_13_626
*21450 TAP_TAPCELL_ROW_140_2958
*21451 TAP_TAPCELL_ROW_140_2959
*21452 TAP_TAPCELL_ROW_140_2960
*21453 TAP_TAPCELL_ROW_140_2961
*21454 TAP_TAPCELL_ROW_140_2962
*21455 TAP_TAPCELL_ROW_140_2963
*21456 TAP_TAPCELL_ROW_140_2964
*21457 TAP_TAPCELL_ROW_140_2965
*21458 TAP_TAPCELL_ROW_140_2966
*21459 TAP_TAPCELL_ROW_140_2967
*21460 TAP_TAPCELL_ROW_140_2968
*21461 TAP_TAPCELL_ROW_140_2969
*21462 TAP_TAPCELL_ROW_140_2970
*21463 TAP_TAPCELL_ROW_140_2971
*21464 TAP_TAPCELL_ROW_140_2972
*21465 TAP_TAPCELL_ROW_140_2973
*21466 TAP_TAPCELL_ROW_140_2974
*21467 TAP_TAPCELL_ROW_140_2975
*21468 TAP_TAPCELL_ROW_140_2976
*21469 TAP_TAPCELL_ROW_141_2977
*21470 TAP_TAPCELL_ROW_141_2978
*21471 TAP_TAPCELL_ROW_141_2979
*21472 TAP_TAPCELL_ROW_141_2980
*21473 TAP_TAPCELL_ROW_141_2981
*21474 TAP_TAPCELL_ROW_141_2982
*21475 TAP_TAPCELL_ROW_141_2983
*21476 TAP_TAPCELL_ROW_141_2984
*21477 TAP_TAPCELL_ROW_141_2985
*21478 TAP_TAPCELL_ROW_141_2986
*21479 TAP_TAPCELL_ROW_141_2987
*21480 TAP_TAPCELL_ROW_141_2988
*21481 TAP_TAPCELL_ROW_141_2989
*21482 TAP_TAPCELL_ROW_141_2990
*21483 TAP_TAPCELL_ROW_141_2991
*21484 TAP_TAPCELL_ROW_141_2992
*21485 TAP_TAPCELL_ROW_141_2993
*21486 TAP_TAPCELL_ROW_141_2994
*21487 TAP_TAPCELL_ROW_142_2995
*21488 TAP_TAPCELL_ROW_142_2996
*21489 TAP_TAPCELL_ROW_142_2997
*21490 TAP_TAPCELL_ROW_142_2998
*21491 TAP_TAPCELL_ROW_142_2999
*21492 TAP_TAPCELL_ROW_142_3000
*21493 TAP_TAPCELL_ROW_142_3001
*21494 TAP_TAPCELL_ROW_142_3002
*21495 TAP_TAPCELL_ROW_142_3003
*21496 TAP_TAPCELL_ROW_142_3004
*21497 TAP_TAPCELL_ROW_142_3005
*21498 TAP_TAPCELL_ROW_142_3006
*21499 TAP_TAPCELL_ROW_142_3007
*21500 TAP_TAPCELL_ROW_142_3008
*21501 TAP_TAPCELL_ROW_142_3009
*21502 TAP_TAPCELL_ROW_142_3010
*21503 TAP_TAPCELL_ROW_142_3011
*21504 TAP_TAPCELL_ROW_142_3012
*21505 TAP_TAPCELL_ROW_142_3013
*21506 TAP_TAPCELL_ROW_143_3014
*21507 TAP_TAPCELL_ROW_143_3015
*21508 TAP_TAPCELL_ROW_143_3016
*21509 TAP_TAPCELL_ROW_143_3017
*21510 TAP_TAPCELL_ROW_143_3018
*21511 TAP_TAPCELL_ROW_143_3019
*21512 TAP_TAPCELL_ROW_143_3020
*21513 TAP_TAPCELL_ROW_143_3021
*21514 TAP_TAPCELL_ROW_143_3022
*21515 TAP_TAPCELL_ROW_143_3023
*21516 TAP_TAPCELL_ROW_143_3024
*21517 TAP_TAPCELL_ROW_143_3025
*21518 TAP_TAPCELL_ROW_143_3026
*21519 TAP_TAPCELL_ROW_143_3027
*21520 TAP_TAPCELL_ROW_143_3028
*21521 TAP_TAPCELL_ROW_143_3029
*21522 TAP_TAPCELL_ROW_143_3030
*21523 TAP_TAPCELL_ROW_143_3031
*21524 TAP_TAPCELL_ROW_144_3032
*21525 TAP_TAPCELL_ROW_144_3033
*21526 TAP_TAPCELL_ROW_144_3034
*21527 TAP_TAPCELL_ROW_144_3035
*21528 TAP_TAPCELL_ROW_144_3036
*21529 TAP_TAPCELL_ROW_144_3037
*21530 TAP_TAPCELL_ROW_144_3038
*21531 TAP_TAPCELL_ROW_144_3039
*21532 TAP_TAPCELL_ROW_144_3040
*21533 TAP_TAPCELL_ROW_144_3041
*21534 TAP_TAPCELL_ROW_144_3042
*21535 TAP_TAPCELL_ROW_144_3043
*21536 TAP_TAPCELL_ROW_144_3044
*21537 TAP_TAPCELL_ROW_144_3045
*21538 TAP_TAPCELL_ROW_144_3046
*21539 TAP_TAPCELL_ROW_144_3047
*21540 TAP_TAPCELL_ROW_144_3048
*21541 TAP_TAPCELL_ROW_144_3049
*21542 TAP_TAPCELL_ROW_144_3050
*21543 TAP_TAPCELL_ROW_145_3051
*21544 TAP_TAPCELL_ROW_145_3052
*21545 TAP_TAPCELL_ROW_145_3053
*21546 TAP_TAPCELL_ROW_145_3054
*21547 TAP_TAPCELL_ROW_145_3055
*21548 TAP_TAPCELL_ROW_145_3056
*21549 TAP_TAPCELL_ROW_145_3057
*21550 TAP_TAPCELL_ROW_145_3058
*21551 TAP_TAPCELL_ROW_145_3059
*21552 TAP_TAPCELL_ROW_145_3060
*21553 TAP_TAPCELL_ROW_145_3061
*21554 TAP_TAPCELL_ROW_145_3062
*21555 TAP_TAPCELL_ROW_145_3063
*21556 TAP_TAPCELL_ROW_145_3064
*21557 TAP_TAPCELL_ROW_145_3065
*21558 TAP_TAPCELL_ROW_145_3066
*21559 TAP_TAPCELL_ROW_145_3067
*21560 TAP_TAPCELL_ROW_145_3068
*21561 TAP_TAPCELL_ROW_146_3069
*21562 TAP_TAPCELL_ROW_146_3070
*21563 TAP_TAPCELL_ROW_146_3071
*21564 TAP_TAPCELL_ROW_146_3072
*21565 TAP_TAPCELL_ROW_146_3073
*21566 TAP_TAPCELL_ROW_146_3074
*21567 TAP_TAPCELL_ROW_146_3075
*21568 TAP_TAPCELL_ROW_146_3076
*21569 TAP_TAPCELL_ROW_146_3077
*21570 TAP_TAPCELL_ROW_146_3078
*21571 TAP_TAPCELL_ROW_146_3079
*21572 TAP_TAPCELL_ROW_146_3080
*21573 TAP_TAPCELL_ROW_146_3081
*21574 TAP_TAPCELL_ROW_146_3082
*21575 TAP_TAPCELL_ROW_146_3083
*21576 TAP_TAPCELL_ROW_146_3084
*21577 TAP_TAPCELL_ROW_146_3085
*21578 TAP_TAPCELL_ROW_146_3086
*21579 TAP_TAPCELL_ROW_146_3087
*21580 TAP_TAPCELL_ROW_147_3088
*21581 TAP_TAPCELL_ROW_147_3089
*21582 TAP_TAPCELL_ROW_147_3090
*21583 TAP_TAPCELL_ROW_147_3091
*21584 TAP_TAPCELL_ROW_147_3092
*21585 TAP_TAPCELL_ROW_147_3093
*21586 TAP_TAPCELL_ROW_147_3094
*21587 TAP_TAPCELL_ROW_147_3095
*21588 TAP_TAPCELL_ROW_147_3096
*21589 TAP_TAPCELL_ROW_147_3097
*21590 TAP_TAPCELL_ROW_147_3098
*21591 TAP_TAPCELL_ROW_147_3099
*21592 TAP_TAPCELL_ROW_147_3100
*21593 TAP_TAPCELL_ROW_147_3101
*21594 TAP_TAPCELL_ROW_147_3102
*21595 TAP_TAPCELL_ROW_147_3103
*21596 TAP_TAPCELL_ROW_147_3104
*21597 TAP_TAPCELL_ROW_147_3105
*21598 TAP_TAPCELL_ROW_148_3106
*21599 TAP_TAPCELL_ROW_148_3107
*21600 TAP_TAPCELL_ROW_148_3108
*21601 TAP_TAPCELL_ROW_148_3109
*21602 TAP_TAPCELL_ROW_148_3110
*21603 TAP_TAPCELL_ROW_148_3111
*21604 TAP_TAPCELL_ROW_148_3112
*21605 TAP_TAPCELL_ROW_148_3113
*21606 TAP_TAPCELL_ROW_148_3114
*21607 TAP_TAPCELL_ROW_148_3115
*21608 TAP_TAPCELL_ROW_148_3116
*21609 TAP_TAPCELL_ROW_148_3117
*21610 TAP_TAPCELL_ROW_148_3118
*21611 TAP_TAPCELL_ROW_148_3119
*21612 TAP_TAPCELL_ROW_148_3120
*21613 TAP_TAPCELL_ROW_148_3121
*21614 TAP_TAPCELL_ROW_148_3122
*21615 TAP_TAPCELL_ROW_148_3123
*21616 TAP_TAPCELL_ROW_148_3124
*21617 TAP_TAPCELL_ROW_149_3125
*21618 TAP_TAPCELL_ROW_149_3126
*21619 TAP_TAPCELL_ROW_149_3127
*21620 TAP_TAPCELL_ROW_149_3128
*21621 TAP_TAPCELL_ROW_149_3129
*21622 TAP_TAPCELL_ROW_149_3130
*21623 TAP_TAPCELL_ROW_149_3131
*21624 TAP_TAPCELL_ROW_149_3132
*21625 TAP_TAPCELL_ROW_149_3133
*21626 TAP_TAPCELL_ROW_149_3134
*21627 TAP_TAPCELL_ROW_149_3135
*21628 TAP_TAPCELL_ROW_149_3136
*21629 TAP_TAPCELL_ROW_149_3137
*21630 TAP_TAPCELL_ROW_149_3138
*21631 TAP_TAPCELL_ROW_149_3139
*21632 TAP_TAPCELL_ROW_149_3140
*21633 TAP_TAPCELL_ROW_149_3141
*21634 TAP_TAPCELL_ROW_149_3142
*21635 TAP_TAPCELL_ROW_14_627
*21636 TAP_TAPCELL_ROW_14_628
*21637 TAP_TAPCELL_ROW_14_629
*21638 TAP_TAPCELL_ROW_14_630
*21639 TAP_TAPCELL_ROW_14_631
*21640 TAP_TAPCELL_ROW_14_632
*21641 TAP_TAPCELL_ROW_14_633
*21642 TAP_TAPCELL_ROW_14_634
*21643 TAP_TAPCELL_ROW_14_635
*21644 TAP_TAPCELL_ROW_14_636
*21645 TAP_TAPCELL_ROW_14_637
*21646 TAP_TAPCELL_ROW_14_638
*21647 TAP_TAPCELL_ROW_14_639
*21648 TAP_TAPCELL_ROW_14_640
*21649 TAP_TAPCELL_ROW_14_641
*21650 TAP_TAPCELL_ROW_14_642
*21651 TAP_TAPCELL_ROW_14_643
*21652 TAP_TAPCELL_ROW_14_644
*21653 TAP_TAPCELL_ROW_14_645
*21654 TAP_TAPCELL_ROW_150_3143
*21655 TAP_TAPCELL_ROW_150_3144
*21656 TAP_TAPCELL_ROW_150_3145
*21657 TAP_TAPCELL_ROW_150_3146
*21658 TAP_TAPCELL_ROW_150_3147
*21659 TAP_TAPCELL_ROW_150_3148
*21660 TAP_TAPCELL_ROW_150_3149
*21661 TAP_TAPCELL_ROW_150_3150
*21662 TAP_TAPCELL_ROW_150_3151
*21663 TAP_TAPCELL_ROW_150_3152
*21664 TAP_TAPCELL_ROW_150_3153
*21665 TAP_TAPCELL_ROW_150_3154
*21666 TAP_TAPCELL_ROW_150_3155
*21667 TAP_TAPCELL_ROW_150_3156
*21668 TAP_TAPCELL_ROW_150_3157
*21669 TAP_TAPCELL_ROW_150_3158
*21670 TAP_TAPCELL_ROW_150_3159
*21671 TAP_TAPCELL_ROW_150_3160
*21672 TAP_TAPCELL_ROW_150_3161
*21673 TAP_TAPCELL_ROW_151_3162
*21674 TAP_TAPCELL_ROW_151_3163
*21675 TAP_TAPCELL_ROW_151_3164
*21676 TAP_TAPCELL_ROW_151_3165
*21677 TAP_TAPCELL_ROW_151_3166
*21678 TAP_TAPCELL_ROW_151_3167
*21679 TAP_TAPCELL_ROW_151_3168
*21680 TAP_TAPCELL_ROW_151_3169
*21681 TAP_TAPCELL_ROW_151_3170
*21682 TAP_TAPCELL_ROW_151_3171
*21683 TAP_TAPCELL_ROW_151_3172
*21684 TAP_TAPCELL_ROW_151_3173
*21685 TAP_TAPCELL_ROW_151_3174
*21686 TAP_TAPCELL_ROW_151_3175
*21687 TAP_TAPCELL_ROW_151_3176
*21688 TAP_TAPCELL_ROW_151_3177
*21689 TAP_TAPCELL_ROW_151_3178
*21690 TAP_TAPCELL_ROW_151_3179
*21691 TAP_TAPCELL_ROW_152_3180
*21692 TAP_TAPCELL_ROW_152_3181
*21693 TAP_TAPCELL_ROW_152_3182
*21694 TAP_TAPCELL_ROW_152_3183
*21695 TAP_TAPCELL_ROW_152_3184
*21696 TAP_TAPCELL_ROW_152_3185
*21697 TAP_TAPCELL_ROW_152_3186
*21698 TAP_TAPCELL_ROW_152_3187
*21699 TAP_TAPCELL_ROW_152_3188
*21700 TAP_TAPCELL_ROW_152_3189
*21701 TAP_TAPCELL_ROW_152_3190
*21702 TAP_TAPCELL_ROW_152_3191
*21703 TAP_TAPCELL_ROW_152_3192
*21704 TAP_TAPCELL_ROW_152_3193
*21705 TAP_TAPCELL_ROW_152_3194
*21706 TAP_TAPCELL_ROW_152_3195
*21707 TAP_TAPCELL_ROW_152_3196
*21708 TAP_TAPCELL_ROW_152_3197
*21709 TAP_TAPCELL_ROW_152_3198
*21710 TAP_TAPCELL_ROW_153_3199
*21711 TAP_TAPCELL_ROW_153_3200
*21712 TAP_TAPCELL_ROW_153_3201
*21713 TAP_TAPCELL_ROW_153_3202
*21714 TAP_TAPCELL_ROW_153_3203
*21715 TAP_TAPCELL_ROW_153_3204
*21716 TAP_TAPCELL_ROW_153_3205
*21717 TAP_TAPCELL_ROW_153_3206
*21718 TAP_TAPCELL_ROW_153_3207
*21719 TAP_TAPCELL_ROW_153_3208
*21720 TAP_TAPCELL_ROW_153_3209
*21721 TAP_TAPCELL_ROW_153_3210
*21722 TAP_TAPCELL_ROW_153_3211
*21723 TAP_TAPCELL_ROW_153_3212
*21724 TAP_TAPCELL_ROW_153_3213
*21725 TAP_TAPCELL_ROW_153_3214
*21726 TAP_TAPCELL_ROW_153_3215
*21727 TAP_TAPCELL_ROW_153_3216
*21728 TAP_TAPCELL_ROW_154_3217
*21729 TAP_TAPCELL_ROW_154_3218
*21730 TAP_TAPCELL_ROW_154_3219
*21731 TAP_TAPCELL_ROW_154_3220
*21732 TAP_TAPCELL_ROW_154_3221
*21733 TAP_TAPCELL_ROW_154_3222
*21734 TAP_TAPCELL_ROW_154_3223
*21735 TAP_TAPCELL_ROW_154_3224
*21736 TAP_TAPCELL_ROW_154_3225
*21737 TAP_TAPCELL_ROW_154_3226
*21738 TAP_TAPCELL_ROW_154_3227
*21739 TAP_TAPCELL_ROW_154_3228
*21740 TAP_TAPCELL_ROW_154_3229
*21741 TAP_TAPCELL_ROW_154_3230
*21742 TAP_TAPCELL_ROW_154_3231
*21743 TAP_TAPCELL_ROW_154_3232
*21744 TAP_TAPCELL_ROW_154_3233
*21745 TAP_TAPCELL_ROW_154_3234
*21746 TAP_TAPCELL_ROW_154_3235
*21747 TAP_TAPCELL_ROW_155_3236
*21748 TAP_TAPCELL_ROW_155_3237
*21749 TAP_TAPCELL_ROW_155_3238
*21750 TAP_TAPCELL_ROW_155_3239
*21751 TAP_TAPCELL_ROW_155_3240
*21752 TAP_TAPCELL_ROW_155_3241
*21753 TAP_TAPCELL_ROW_155_3242
*21754 TAP_TAPCELL_ROW_155_3243
*21755 TAP_TAPCELL_ROW_155_3244
*21756 TAP_TAPCELL_ROW_155_3245
*21757 TAP_TAPCELL_ROW_155_3246
*21758 TAP_TAPCELL_ROW_155_3247
*21759 TAP_TAPCELL_ROW_155_3248
*21760 TAP_TAPCELL_ROW_155_3249
*21761 TAP_TAPCELL_ROW_155_3250
*21762 TAP_TAPCELL_ROW_155_3251
*21763 TAP_TAPCELL_ROW_155_3252
*21764 TAP_TAPCELL_ROW_155_3253
*21765 TAP_TAPCELL_ROW_156_3254
*21766 TAP_TAPCELL_ROW_156_3255
*21767 TAP_TAPCELL_ROW_156_3256
*21768 TAP_TAPCELL_ROW_156_3257
*21769 TAP_TAPCELL_ROW_156_3258
*21770 TAP_TAPCELL_ROW_156_3259
*21771 TAP_TAPCELL_ROW_156_3260
*21772 TAP_TAPCELL_ROW_156_3261
*21773 TAP_TAPCELL_ROW_156_3262
*21774 TAP_TAPCELL_ROW_156_3263
*21775 TAP_TAPCELL_ROW_156_3264
*21776 TAP_TAPCELL_ROW_156_3265
*21777 TAP_TAPCELL_ROW_156_3266
*21778 TAP_TAPCELL_ROW_156_3267
*21779 TAP_TAPCELL_ROW_156_3268
*21780 TAP_TAPCELL_ROW_156_3269
*21781 TAP_TAPCELL_ROW_156_3270
*21782 TAP_TAPCELL_ROW_156_3271
*21783 TAP_TAPCELL_ROW_156_3272
*21784 TAP_TAPCELL_ROW_157_3273
*21785 TAP_TAPCELL_ROW_157_3274
*21786 TAP_TAPCELL_ROW_157_3275
*21787 TAP_TAPCELL_ROW_157_3276
*21788 TAP_TAPCELL_ROW_157_3277
*21789 TAP_TAPCELL_ROW_157_3278
*21790 TAP_TAPCELL_ROW_157_3279
*21791 TAP_TAPCELL_ROW_157_3280
*21792 TAP_TAPCELL_ROW_157_3281
*21793 TAP_TAPCELL_ROW_157_3282
*21794 TAP_TAPCELL_ROW_157_3283
*21795 TAP_TAPCELL_ROW_157_3284
*21796 TAP_TAPCELL_ROW_157_3285
*21797 TAP_TAPCELL_ROW_157_3286
*21798 TAP_TAPCELL_ROW_157_3287
*21799 TAP_TAPCELL_ROW_157_3288
*21800 TAP_TAPCELL_ROW_157_3289
*21801 TAP_TAPCELL_ROW_157_3290
*21802 TAP_TAPCELL_ROW_158_3291
*21803 TAP_TAPCELL_ROW_158_3292
*21804 TAP_TAPCELL_ROW_158_3293
*21805 TAP_TAPCELL_ROW_158_3294
*21806 TAP_TAPCELL_ROW_158_3295
*21807 TAP_TAPCELL_ROW_158_3296
*21808 TAP_TAPCELL_ROW_158_3297
*21809 TAP_TAPCELL_ROW_158_3298
*21810 TAP_TAPCELL_ROW_158_3299
*21811 TAP_TAPCELL_ROW_158_3300
*21812 TAP_TAPCELL_ROW_158_3301
*21813 TAP_TAPCELL_ROW_158_3302
*21814 TAP_TAPCELL_ROW_158_3303
*21815 TAP_TAPCELL_ROW_158_3304
*21816 TAP_TAPCELL_ROW_158_3305
*21817 TAP_TAPCELL_ROW_158_3306
*21818 TAP_TAPCELL_ROW_158_3307
*21819 TAP_TAPCELL_ROW_158_3308
*21820 TAP_TAPCELL_ROW_158_3309
*21821 TAP_TAPCELL_ROW_159_3310
*21822 TAP_TAPCELL_ROW_159_3311
*21823 TAP_TAPCELL_ROW_159_3312
*21824 TAP_TAPCELL_ROW_159_3313
*21825 TAP_TAPCELL_ROW_159_3314
*21826 TAP_TAPCELL_ROW_159_3315
*21827 TAP_TAPCELL_ROW_159_3316
*21828 TAP_TAPCELL_ROW_159_3317
*21829 TAP_TAPCELL_ROW_159_3318
*21830 TAP_TAPCELL_ROW_159_3319
*21831 TAP_TAPCELL_ROW_159_3320
*21832 TAP_TAPCELL_ROW_159_3321
*21833 TAP_TAPCELL_ROW_159_3322
*21834 TAP_TAPCELL_ROW_159_3323
*21835 TAP_TAPCELL_ROW_159_3324
*21836 TAP_TAPCELL_ROW_159_3325
*21837 TAP_TAPCELL_ROW_159_3326
*21838 TAP_TAPCELL_ROW_159_3327
*21839 TAP_TAPCELL_ROW_15_646
*21840 TAP_TAPCELL_ROW_15_647
*21841 TAP_TAPCELL_ROW_15_648
*21842 TAP_TAPCELL_ROW_15_649
*21843 TAP_TAPCELL_ROW_15_650
*21844 TAP_TAPCELL_ROW_15_651
*21845 TAP_TAPCELL_ROW_15_652
*21846 TAP_TAPCELL_ROW_15_653
*21847 TAP_TAPCELL_ROW_15_654
*21848 TAP_TAPCELL_ROW_15_655
*21849 TAP_TAPCELL_ROW_15_656
*21850 TAP_TAPCELL_ROW_15_657
*21851 TAP_TAPCELL_ROW_15_658
*21852 TAP_TAPCELL_ROW_15_659
*21853 TAP_TAPCELL_ROW_15_660
*21854 TAP_TAPCELL_ROW_15_661
*21855 TAP_TAPCELL_ROW_15_662
*21856 TAP_TAPCELL_ROW_15_663
*21857 TAP_TAPCELL_ROW_160_3328
*21858 TAP_TAPCELL_ROW_160_3329
*21859 TAP_TAPCELL_ROW_160_3330
*21860 TAP_TAPCELL_ROW_160_3331
*21861 TAP_TAPCELL_ROW_160_3332
*21862 TAP_TAPCELL_ROW_160_3333
*21863 TAP_TAPCELL_ROW_160_3334
*21864 TAP_TAPCELL_ROW_160_3335
*21865 TAP_TAPCELL_ROW_160_3336
*21866 TAP_TAPCELL_ROW_160_3337
*21867 TAP_TAPCELL_ROW_160_3338
*21868 TAP_TAPCELL_ROW_160_3339
*21869 TAP_TAPCELL_ROW_160_3340
*21870 TAP_TAPCELL_ROW_160_3341
*21871 TAP_TAPCELL_ROW_160_3342
*21872 TAP_TAPCELL_ROW_160_3343
*21873 TAP_TAPCELL_ROW_160_3344
*21874 TAP_TAPCELL_ROW_160_3345
*21875 TAP_TAPCELL_ROW_160_3346
*21876 TAP_TAPCELL_ROW_161_3347
*21877 TAP_TAPCELL_ROW_161_3348
*21878 TAP_TAPCELL_ROW_161_3349
*21879 TAP_TAPCELL_ROW_161_3350
*21880 TAP_TAPCELL_ROW_161_3351
*21881 TAP_TAPCELL_ROW_161_3352
*21882 TAP_TAPCELL_ROW_161_3353
*21883 TAP_TAPCELL_ROW_161_3354
*21884 TAP_TAPCELL_ROW_161_3355
*21885 TAP_TAPCELL_ROW_161_3356
*21886 TAP_TAPCELL_ROW_161_3357
*21887 TAP_TAPCELL_ROW_161_3358
*21888 TAP_TAPCELL_ROW_161_3359
*21889 TAP_TAPCELL_ROW_161_3360
*21890 TAP_TAPCELL_ROW_161_3361
*21891 TAP_TAPCELL_ROW_161_3362
*21892 TAP_TAPCELL_ROW_161_3363
*21893 TAP_TAPCELL_ROW_161_3364
*21894 TAP_TAPCELL_ROW_162_3365
*21895 TAP_TAPCELL_ROW_162_3366
*21896 TAP_TAPCELL_ROW_162_3367
*21897 TAP_TAPCELL_ROW_162_3368
*21898 TAP_TAPCELL_ROW_162_3369
*21899 TAP_TAPCELL_ROW_162_3370
*21900 TAP_TAPCELL_ROW_162_3371
*21901 TAP_TAPCELL_ROW_162_3372
*21902 TAP_TAPCELL_ROW_162_3373
*21903 TAP_TAPCELL_ROW_162_3374
*21904 TAP_TAPCELL_ROW_162_3375
*21905 TAP_TAPCELL_ROW_162_3376
*21906 TAP_TAPCELL_ROW_162_3377
*21907 TAP_TAPCELL_ROW_162_3378
*21908 TAP_TAPCELL_ROW_162_3379
*21909 TAP_TAPCELL_ROW_162_3380
*21910 TAP_TAPCELL_ROW_162_3381
*21911 TAP_TAPCELL_ROW_162_3382
*21912 TAP_TAPCELL_ROW_162_3383
*21913 TAP_TAPCELL_ROW_163_3384
*21914 TAP_TAPCELL_ROW_163_3385
*21915 TAP_TAPCELL_ROW_163_3386
*21916 TAP_TAPCELL_ROW_163_3387
*21917 TAP_TAPCELL_ROW_163_3388
*21918 TAP_TAPCELL_ROW_163_3389
*21919 TAP_TAPCELL_ROW_163_3390
*21920 TAP_TAPCELL_ROW_163_3391
*21921 TAP_TAPCELL_ROW_163_3392
*21922 TAP_TAPCELL_ROW_163_3393
*21923 TAP_TAPCELL_ROW_163_3394
*21924 TAP_TAPCELL_ROW_163_3395
*21925 TAP_TAPCELL_ROW_163_3396
*21926 TAP_TAPCELL_ROW_163_3397
*21927 TAP_TAPCELL_ROW_163_3398
*21928 TAP_TAPCELL_ROW_163_3399
*21929 TAP_TAPCELL_ROW_163_3400
*21930 TAP_TAPCELL_ROW_163_3401
*21931 TAP_TAPCELL_ROW_164_3402
*21932 TAP_TAPCELL_ROW_164_3403
*21933 TAP_TAPCELL_ROW_164_3404
*21934 TAP_TAPCELL_ROW_164_3405
*21935 TAP_TAPCELL_ROW_164_3406
*21936 TAP_TAPCELL_ROW_164_3407
*21937 TAP_TAPCELL_ROW_164_3408
*21938 TAP_TAPCELL_ROW_164_3409
*21939 TAP_TAPCELL_ROW_164_3410
*21940 TAP_TAPCELL_ROW_164_3411
*21941 TAP_TAPCELL_ROW_164_3412
*21942 TAP_TAPCELL_ROW_164_3413
*21943 TAP_TAPCELL_ROW_164_3414
*21944 TAP_TAPCELL_ROW_164_3415
*21945 TAP_TAPCELL_ROW_164_3416
*21946 TAP_TAPCELL_ROW_164_3417
*21947 TAP_TAPCELL_ROW_164_3418
*21948 TAP_TAPCELL_ROW_164_3419
*21949 TAP_TAPCELL_ROW_164_3420
*21950 TAP_TAPCELL_ROW_165_3421
*21951 TAP_TAPCELL_ROW_165_3422
*21952 TAP_TAPCELL_ROW_165_3423
*21953 TAP_TAPCELL_ROW_165_3424
*21954 TAP_TAPCELL_ROW_165_3425
*21955 TAP_TAPCELL_ROW_165_3426
*21956 TAP_TAPCELL_ROW_165_3427
*21957 TAP_TAPCELL_ROW_165_3428
*21958 TAP_TAPCELL_ROW_165_3429
*21959 TAP_TAPCELL_ROW_165_3430
*21960 TAP_TAPCELL_ROW_165_3431
*21961 TAP_TAPCELL_ROW_165_3432
*21962 TAP_TAPCELL_ROW_165_3433
*21963 TAP_TAPCELL_ROW_165_3434
*21964 TAP_TAPCELL_ROW_165_3435
*21965 TAP_TAPCELL_ROW_165_3436
*21966 TAP_TAPCELL_ROW_165_3437
*21967 TAP_TAPCELL_ROW_165_3438
*21968 TAP_TAPCELL_ROW_166_3439
*21969 TAP_TAPCELL_ROW_166_3440
*21970 TAP_TAPCELL_ROW_166_3441
*21971 TAP_TAPCELL_ROW_166_3442
*21972 TAP_TAPCELL_ROW_166_3443
*21973 TAP_TAPCELL_ROW_166_3444
*21974 TAP_TAPCELL_ROW_166_3445
*21975 TAP_TAPCELL_ROW_166_3446
*21976 TAP_TAPCELL_ROW_166_3447
*21977 TAP_TAPCELL_ROW_166_3448
*21978 TAP_TAPCELL_ROW_166_3449
*21979 TAP_TAPCELL_ROW_166_3450
*21980 TAP_TAPCELL_ROW_166_3451
*21981 TAP_TAPCELL_ROW_166_3452
*21982 TAP_TAPCELL_ROW_166_3453
*21983 TAP_TAPCELL_ROW_166_3454
*21984 TAP_TAPCELL_ROW_166_3455
*21985 TAP_TAPCELL_ROW_166_3456
*21986 TAP_TAPCELL_ROW_166_3457
*21987 TAP_TAPCELL_ROW_167_3458
*21988 TAP_TAPCELL_ROW_167_3459
*21989 TAP_TAPCELL_ROW_167_3460
*21990 TAP_TAPCELL_ROW_167_3461
*21991 TAP_TAPCELL_ROW_167_3462
*21992 TAP_TAPCELL_ROW_167_3463
*21993 TAP_TAPCELL_ROW_167_3464
*21994 TAP_TAPCELL_ROW_167_3465
*21995 TAP_TAPCELL_ROW_167_3466
*21996 TAP_TAPCELL_ROW_167_3467
*21997 TAP_TAPCELL_ROW_167_3468
*21998 TAP_TAPCELL_ROW_167_3469
*21999 TAP_TAPCELL_ROW_167_3470
*22000 TAP_TAPCELL_ROW_167_3471
*22001 TAP_TAPCELL_ROW_167_3472
*22002 TAP_TAPCELL_ROW_167_3473
*22003 TAP_TAPCELL_ROW_167_3474
*22004 TAP_TAPCELL_ROW_167_3475
*22005 TAP_TAPCELL_ROW_168_3476
*22006 TAP_TAPCELL_ROW_168_3477
*22007 TAP_TAPCELL_ROW_168_3478
*22008 TAP_TAPCELL_ROW_168_3479
*22009 TAP_TAPCELL_ROW_168_3480
*22010 TAP_TAPCELL_ROW_168_3481
*22011 TAP_TAPCELL_ROW_168_3482
*22012 TAP_TAPCELL_ROW_168_3483
*22013 TAP_TAPCELL_ROW_168_3484
*22014 TAP_TAPCELL_ROW_168_3485
*22015 TAP_TAPCELL_ROW_168_3486
*22016 TAP_TAPCELL_ROW_168_3487
*22017 TAP_TAPCELL_ROW_168_3488
*22018 TAP_TAPCELL_ROW_168_3489
*22019 TAP_TAPCELL_ROW_168_3490
*22020 TAP_TAPCELL_ROW_168_3491
*22021 TAP_TAPCELL_ROW_168_3492
*22022 TAP_TAPCELL_ROW_168_3493
*22023 TAP_TAPCELL_ROW_168_3494
*22024 TAP_TAPCELL_ROW_169_3495
*22025 TAP_TAPCELL_ROW_169_3496
*22026 TAP_TAPCELL_ROW_169_3497
*22027 TAP_TAPCELL_ROW_169_3498
*22028 TAP_TAPCELL_ROW_169_3499
*22029 TAP_TAPCELL_ROW_169_3500
*22030 TAP_TAPCELL_ROW_169_3501
*22031 TAP_TAPCELL_ROW_169_3502
*22032 TAP_TAPCELL_ROW_169_3503
*22033 TAP_TAPCELL_ROW_169_3504
*22034 TAP_TAPCELL_ROW_169_3505
*22035 TAP_TAPCELL_ROW_169_3506
*22036 TAP_TAPCELL_ROW_169_3507
*22037 TAP_TAPCELL_ROW_169_3508
*22038 TAP_TAPCELL_ROW_169_3509
*22039 TAP_TAPCELL_ROW_169_3510
*22040 TAP_TAPCELL_ROW_169_3511
*22041 TAP_TAPCELL_ROW_169_3512
*22042 TAP_TAPCELL_ROW_16_664
*22043 TAP_TAPCELL_ROW_16_665
*22044 TAP_TAPCELL_ROW_16_666
*22045 TAP_TAPCELL_ROW_16_667
*22046 TAP_TAPCELL_ROW_16_668
*22047 TAP_TAPCELL_ROW_16_669
*22048 TAP_TAPCELL_ROW_16_670
*22049 TAP_TAPCELL_ROW_16_671
*22050 TAP_TAPCELL_ROW_16_672
*22051 TAP_TAPCELL_ROW_16_673
*22052 TAP_TAPCELL_ROW_16_674
*22053 TAP_TAPCELL_ROW_16_675
*22054 TAP_TAPCELL_ROW_16_676
*22055 TAP_TAPCELL_ROW_16_677
*22056 TAP_TAPCELL_ROW_16_678
*22057 TAP_TAPCELL_ROW_16_679
*22058 TAP_TAPCELL_ROW_16_680
*22059 TAP_TAPCELL_ROW_16_681
*22060 TAP_TAPCELL_ROW_16_682
*22061 TAP_TAPCELL_ROW_170_3513
*22062 TAP_TAPCELL_ROW_170_3514
*22063 TAP_TAPCELL_ROW_170_3515
*22064 TAP_TAPCELL_ROW_170_3516
*22065 TAP_TAPCELL_ROW_170_3517
*22066 TAP_TAPCELL_ROW_170_3518
*22067 TAP_TAPCELL_ROW_170_3519
*22068 TAP_TAPCELL_ROW_170_3520
*22069 TAP_TAPCELL_ROW_170_3521
*22070 TAP_TAPCELL_ROW_170_3522
*22071 TAP_TAPCELL_ROW_170_3523
*22072 TAP_TAPCELL_ROW_170_3524
*22073 TAP_TAPCELL_ROW_170_3525
*22074 TAP_TAPCELL_ROW_170_3526
*22075 TAP_TAPCELL_ROW_170_3527
*22076 TAP_TAPCELL_ROW_170_3528
*22077 TAP_TAPCELL_ROW_170_3529
*22078 TAP_TAPCELL_ROW_170_3530
*22079 TAP_TAPCELL_ROW_170_3531
*22080 TAP_TAPCELL_ROW_171_3532
*22081 TAP_TAPCELL_ROW_171_3533
*22082 TAP_TAPCELL_ROW_171_3534
*22083 TAP_TAPCELL_ROW_171_3535
*22084 TAP_TAPCELL_ROW_171_3536
*22085 TAP_TAPCELL_ROW_171_3537
*22086 TAP_TAPCELL_ROW_171_3538
*22087 TAP_TAPCELL_ROW_171_3539
*22088 TAP_TAPCELL_ROW_171_3540
*22089 TAP_TAPCELL_ROW_171_3541
*22090 TAP_TAPCELL_ROW_171_3542
*22091 TAP_TAPCELL_ROW_171_3543
*22092 TAP_TAPCELL_ROW_171_3544
*22093 TAP_TAPCELL_ROW_171_3545
*22094 TAP_TAPCELL_ROW_171_3546
*22095 TAP_TAPCELL_ROW_171_3547
*22096 TAP_TAPCELL_ROW_171_3548
*22097 TAP_TAPCELL_ROW_171_3549
*22098 TAP_TAPCELL_ROW_172_3550
*22099 TAP_TAPCELL_ROW_172_3551
*22100 TAP_TAPCELL_ROW_172_3552
*22101 TAP_TAPCELL_ROW_172_3553
*22102 TAP_TAPCELL_ROW_172_3554
*22103 TAP_TAPCELL_ROW_172_3555
*22104 TAP_TAPCELL_ROW_172_3556
*22105 TAP_TAPCELL_ROW_172_3557
*22106 TAP_TAPCELL_ROW_172_3558
*22107 TAP_TAPCELL_ROW_172_3559
*22108 TAP_TAPCELL_ROW_172_3560
*22109 TAP_TAPCELL_ROW_172_3561
*22110 TAP_TAPCELL_ROW_172_3562
*22111 TAP_TAPCELL_ROW_172_3563
*22112 TAP_TAPCELL_ROW_172_3564
*22113 TAP_TAPCELL_ROW_172_3565
*22114 TAP_TAPCELL_ROW_172_3566
*22115 TAP_TAPCELL_ROW_172_3567
*22116 TAP_TAPCELL_ROW_172_3568
*22117 TAP_TAPCELL_ROW_173_3569
*22118 TAP_TAPCELL_ROW_173_3570
*22119 TAP_TAPCELL_ROW_173_3571
*22120 TAP_TAPCELL_ROW_173_3572
*22121 TAP_TAPCELL_ROW_173_3573
*22122 TAP_TAPCELL_ROW_173_3574
*22123 TAP_TAPCELL_ROW_173_3575
*22124 TAP_TAPCELL_ROW_173_3576
*22125 TAP_TAPCELL_ROW_173_3577
*22126 TAP_TAPCELL_ROW_173_3578
*22127 TAP_TAPCELL_ROW_173_3579
*22128 TAP_TAPCELL_ROW_173_3580
*22129 TAP_TAPCELL_ROW_173_3581
*22130 TAP_TAPCELL_ROW_173_3582
*22131 TAP_TAPCELL_ROW_173_3583
*22132 TAP_TAPCELL_ROW_173_3584
*22133 TAP_TAPCELL_ROW_173_3585
*22134 TAP_TAPCELL_ROW_173_3586
*22135 TAP_TAPCELL_ROW_174_3587
*22136 TAP_TAPCELL_ROW_174_3588
*22137 TAP_TAPCELL_ROW_174_3589
*22138 TAP_TAPCELL_ROW_174_3590
*22139 TAP_TAPCELL_ROW_174_3591
*22140 TAP_TAPCELL_ROW_174_3592
*22141 TAP_TAPCELL_ROW_174_3593
*22142 TAP_TAPCELL_ROW_174_3594
*22143 TAP_TAPCELL_ROW_174_3595
*22144 TAP_TAPCELL_ROW_174_3596
*22145 TAP_TAPCELL_ROW_174_3597
*22146 TAP_TAPCELL_ROW_174_3598
*22147 TAP_TAPCELL_ROW_174_3599
*22148 TAP_TAPCELL_ROW_174_3600
*22149 TAP_TAPCELL_ROW_174_3601
*22150 TAP_TAPCELL_ROW_174_3602
*22151 TAP_TAPCELL_ROW_174_3603
*22152 TAP_TAPCELL_ROW_174_3604
*22153 TAP_TAPCELL_ROW_174_3605
*22154 TAP_TAPCELL_ROW_174_3606
*22155 TAP_TAPCELL_ROW_174_3607
*22156 TAP_TAPCELL_ROW_174_3608
*22157 TAP_TAPCELL_ROW_174_3609
*22158 TAP_TAPCELL_ROW_174_3610
*22159 TAP_TAPCELL_ROW_174_3611
*22160 TAP_TAPCELL_ROW_174_3612
*22161 TAP_TAPCELL_ROW_174_3613
*22162 TAP_TAPCELL_ROW_174_3614
*22163 TAP_TAPCELL_ROW_174_3615
*22164 TAP_TAPCELL_ROW_174_3616
*22165 TAP_TAPCELL_ROW_174_3617
*22166 TAP_TAPCELL_ROW_174_3618
*22167 TAP_TAPCELL_ROW_174_3619
*22168 TAP_TAPCELL_ROW_174_3620
*22169 TAP_TAPCELL_ROW_174_3621
*22170 TAP_TAPCELL_ROW_174_3622
*22171 TAP_TAPCELL_ROW_174_3623
*22172 TAP_TAPCELL_ROW_17_683
*22173 TAP_TAPCELL_ROW_17_684
*22174 TAP_TAPCELL_ROW_17_685
*22175 TAP_TAPCELL_ROW_17_686
*22176 TAP_TAPCELL_ROW_17_687
*22177 TAP_TAPCELL_ROW_17_688
*22178 TAP_TAPCELL_ROW_17_689
*22179 TAP_TAPCELL_ROW_17_690
*22180 TAP_TAPCELL_ROW_17_691
*22181 TAP_TAPCELL_ROW_17_692
*22182 TAP_TAPCELL_ROW_17_693
*22183 TAP_TAPCELL_ROW_17_694
*22184 TAP_TAPCELL_ROW_17_695
*22185 TAP_TAPCELL_ROW_17_696
*22186 TAP_TAPCELL_ROW_17_697
*22187 TAP_TAPCELL_ROW_17_698
*22188 TAP_TAPCELL_ROW_17_699
*22189 TAP_TAPCELL_ROW_17_700
*22190 TAP_TAPCELL_ROW_18_701
*22191 TAP_TAPCELL_ROW_18_702
*22192 TAP_TAPCELL_ROW_18_703
*22193 TAP_TAPCELL_ROW_18_704
*22194 TAP_TAPCELL_ROW_18_705
*22195 TAP_TAPCELL_ROW_18_706
*22196 TAP_TAPCELL_ROW_18_707
*22197 TAP_TAPCELL_ROW_18_708
*22198 TAP_TAPCELL_ROW_18_709
*22199 TAP_TAPCELL_ROW_18_710
*22200 TAP_TAPCELL_ROW_18_711
*22201 TAP_TAPCELL_ROW_18_712
*22202 TAP_TAPCELL_ROW_18_713
*22203 TAP_TAPCELL_ROW_18_714
*22204 TAP_TAPCELL_ROW_18_715
*22205 TAP_TAPCELL_ROW_18_716
*22206 TAP_TAPCELL_ROW_18_717
*22207 TAP_TAPCELL_ROW_18_718
*22208 TAP_TAPCELL_ROW_18_719
*22209 TAP_TAPCELL_ROW_19_720
*22210 TAP_TAPCELL_ROW_19_721
*22211 TAP_TAPCELL_ROW_19_722
*22212 TAP_TAPCELL_ROW_19_723
*22213 TAP_TAPCELL_ROW_19_724
*22214 TAP_TAPCELL_ROW_19_725
*22215 TAP_TAPCELL_ROW_19_726
*22216 TAP_TAPCELL_ROW_19_727
*22217 TAP_TAPCELL_ROW_19_728
*22218 TAP_TAPCELL_ROW_19_729
*22219 TAP_TAPCELL_ROW_19_730
*22220 TAP_TAPCELL_ROW_19_731
*22221 TAP_TAPCELL_ROW_19_732
*22222 TAP_TAPCELL_ROW_19_733
*22223 TAP_TAPCELL_ROW_19_734
*22224 TAP_TAPCELL_ROW_19_735
*22225 TAP_TAPCELL_ROW_19_736
*22226 TAP_TAPCELL_ROW_19_737
*22227 TAP_TAPCELL_ROW_1_387
*22228 TAP_TAPCELL_ROW_1_388
*22229 TAP_TAPCELL_ROW_1_389
*22230 TAP_TAPCELL_ROW_1_390
*22231 TAP_TAPCELL_ROW_1_391
*22232 TAP_TAPCELL_ROW_1_392
*22233 TAP_TAPCELL_ROW_1_393
*22234 TAP_TAPCELL_ROW_1_394
*22235 TAP_TAPCELL_ROW_1_395
*22236 TAP_TAPCELL_ROW_1_396
*22237 TAP_TAPCELL_ROW_1_397
*22238 TAP_TAPCELL_ROW_1_398
*22239 TAP_TAPCELL_ROW_1_399
*22240 TAP_TAPCELL_ROW_1_400
*22241 TAP_TAPCELL_ROW_1_401
*22242 TAP_TAPCELL_ROW_1_402
*22243 TAP_TAPCELL_ROW_1_403
*22244 TAP_TAPCELL_ROW_1_404
*22245 TAP_TAPCELL_ROW_20_738
*22246 TAP_TAPCELL_ROW_20_739
*22247 TAP_TAPCELL_ROW_20_740
*22248 TAP_TAPCELL_ROW_20_741
*22249 TAP_TAPCELL_ROW_20_742
*22250 TAP_TAPCELL_ROW_20_743
*22251 TAP_TAPCELL_ROW_20_744
*22252 TAP_TAPCELL_ROW_20_745
*22253 TAP_TAPCELL_ROW_20_746
*22254 TAP_TAPCELL_ROW_20_747
*22255 TAP_TAPCELL_ROW_20_748
*22256 TAP_TAPCELL_ROW_20_749
*22257 TAP_TAPCELL_ROW_20_750
*22258 TAP_TAPCELL_ROW_20_751
*22259 TAP_TAPCELL_ROW_20_752
*22260 TAP_TAPCELL_ROW_20_753
*22261 TAP_TAPCELL_ROW_20_754
*22262 TAP_TAPCELL_ROW_20_755
*22263 TAP_TAPCELL_ROW_20_756
*22264 TAP_TAPCELL_ROW_21_757
*22265 TAP_TAPCELL_ROW_21_758
*22266 TAP_TAPCELL_ROW_21_759
*22267 TAP_TAPCELL_ROW_21_760
*22268 TAP_TAPCELL_ROW_21_761
*22269 TAP_TAPCELL_ROW_21_762
*22270 TAP_TAPCELL_ROW_21_763
*22271 TAP_TAPCELL_ROW_21_764
*22272 TAP_TAPCELL_ROW_21_765
*22273 TAP_TAPCELL_ROW_21_766
*22274 TAP_TAPCELL_ROW_21_767
*22275 TAP_TAPCELL_ROW_21_768
*22276 TAP_TAPCELL_ROW_21_769
*22277 TAP_TAPCELL_ROW_21_770
*22278 TAP_TAPCELL_ROW_21_771
*22279 TAP_TAPCELL_ROW_21_772
*22280 TAP_TAPCELL_ROW_21_773
*22281 TAP_TAPCELL_ROW_21_774
*22282 TAP_TAPCELL_ROW_22_775
*22283 TAP_TAPCELL_ROW_22_776
*22284 TAP_TAPCELL_ROW_22_777
*22285 TAP_TAPCELL_ROW_22_778
*22286 TAP_TAPCELL_ROW_22_779
*22287 TAP_TAPCELL_ROW_22_780
*22288 TAP_TAPCELL_ROW_22_781
*22289 TAP_TAPCELL_ROW_22_782
*22290 TAP_TAPCELL_ROW_22_783
*22291 TAP_TAPCELL_ROW_22_784
*22292 TAP_TAPCELL_ROW_22_785
*22293 TAP_TAPCELL_ROW_22_786
*22294 TAP_TAPCELL_ROW_22_787
*22295 TAP_TAPCELL_ROW_22_788
*22296 TAP_TAPCELL_ROW_22_789
*22297 TAP_TAPCELL_ROW_22_790
*22298 TAP_TAPCELL_ROW_22_791
*22299 TAP_TAPCELL_ROW_22_792
*22300 TAP_TAPCELL_ROW_22_793
*22301 TAP_TAPCELL_ROW_23_794
*22302 TAP_TAPCELL_ROW_23_795
*22303 TAP_TAPCELL_ROW_23_796
*22304 TAP_TAPCELL_ROW_23_797
*22305 TAP_TAPCELL_ROW_23_798
*22306 TAP_TAPCELL_ROW_23_799
*22307 TAP_TAPCELL_ROW_23_800
*22308 TAP_TAPCELL_ROW_23_801
*22309 TAP_TAPCELL_ROW_23_802
*22310 TAP_TAPCELL_ROW_23_803
*22311 TAP_TAPCELL_ROW_23_804
*22312 TAP_TAPCELL_ROW_23_805
*22313 TAP_TAPCELL_ROW_23_806
*22314 TAP_TAPCELL_ROW_23_807
*22315 TAP_TAPCELL_ROW_23_808
*22316 TAP_TAPCELL_ROW_23_809
*22317 TAP_TAPCELL_ROW_23_810
*22318 TAP_TAPCELL_ROW_23_811
*22319 TAP_TAPCELL_ROW_24_812
*22320 TAP_TAPCELL_ROW_24_813
*22321 TAP_TAPCELL_ROW_24_814
*22322 TAP_TAPCELL_ROW_24_815
*22323 TAP_TAPCELL_ROW_24_816
*22324 TAP_TAPCELL_ROW_24_817
*22325 TAP_TAPCELL_ROW_24_818
*22326 TAP_TAPCELL_ROW_24_819
*22327 TAP_TAPCELL_ROW_24_820
*22328 TAP_TAPCELL_ROW_24_821
*22329 TAP_TAPCELL_ROW_24_822
*22330 TAP_TAPCELL_ROW_24_823
*22331 TAP_TAPCELL_ROW_24_824
*22332 TAP_TAPCELL_ROW_24_825
*22333 TAP_TAPCELL_ROW_24_826
*22334 TAP_TAPCELL_ROW_24_827
*22335 TAP_TAPCELL_ROW_24_828
*22336 TAP_TAPCELL_ROW_24_829
*22337 TAP_TAPCELL_ROW_24_830
*22338 TAP_TAPCELL_ROW_25_831
*22339 TAP_TAPCELL_ROW_25_832
*22340 TAP_TAPCELL_ROW_25_833
*22341 TAP_TAPCELL_ROW_25_834
*22342 TAP_TAPCELL_ROW_25_835
*22343 TAP_TAPCELL_ROW_25_836
*22344 TAP_TAPCELL_ROW_25_837
*22345 TAP_TAPCELL_ROW_25_838
*22346 TAP_TAPCELL_ROW_25_839
*22347 TAP_TAPCELL_ROW_25_840
*22348 TAP_TAPCELL_ROW_25_841
*22349 TAP_TAPCELL_ROW_25_842
*22350 TAP_TAPCELL_ROW_25_843
*22351 TAP_TAPCELL_ROW_25_844
*22352 TAP_TAPCELL_ROW_25_845
*22353 TAP_TAPCELL_ROW_25_846
*22354 TAP_TAPCELL_ROW_25_847
*22355 TAP_TAPCELL_ROW_25_848
*22356 TAP_TAPCELL_ROW_26_849
*22357 TAP_TAPCELL_ROW_26_850
*22358 TAP_TAPCELL_ROW_26_851
*22359 TAP_TAPCELL_ROW_26_852
*22360 TAP_TAPCELL_ROW_26_853
*22361 TAP_TAPCELL_ROW_26_854
*22362 TAP_TAPCELL_ROW_26_855
*22363 TAP_TAPCELL_ROW_26_856
*22364 TAP_TAPCELL_ROW_26_857
*22365 TAP_TAPCELL_ROW_26_858
*22366 TAP_TAPCELL_ROW_26_859
*22367 TAP_TAPCELL_ROW_26_860
*22368 TAP_TAPCELL_ROW_26_861
*22369 TAP_TAPCELL_ROW_26_862
*22370 TAP_TAPCELL_ROW_26_863
*22371 TAP_TAPCELL_ROW_26_864
*22372 TAP_TAPCELL_ROW_26_865
*22373 TAP_TAPCELL_ROW_26_866
*22374 TAP_TAPCELL_ROW_26_867
*22375 TAP_TAPCELL_ROW_27_868
*22376 TAP_TAPCELL_ROW_27_869
*22377 TAP_TAPCELL_ROW_27_870
*22378 TAP_TAPCELL_ROW_27_871
*22379 TAP_TAPCELL_ROW_27_872
*22380 TAP_TAPCELL_ROW_27_873
*22381 TAP_TAPCELL_ROW_27_874
*22382 TAP_TAPCELL_ROW_27_875
*22383 TAP_TAPCELL_ROW_27_876
*22384 TAP_TAPCELL_ROW_27_877
*22385 TAP_TAPCELL_ROW_27_878
*22386 TAP_TAPCELL_ROW_27_879
*22387 TAP_TAPCELL_ROW_27_880
*22388 TAP_TAPCELL_ROW_27_881
*22389 TAP_TAPCELL_ROW_27_882
*22390 TAP_TAPCELL_ROW_27_883
*22391 TAP_TAPCELL_ROW_27_884
*22392 TAP_TAPCELL_ROW_27_885
*22393 TAP_TAPCELL_ROW_28_886
*22394 TAP_TAPCELL_ROW_28_887
*22395 TAP_TAPCELL_ROW_28_888
*22396 TAP_TAPCELL_ROW_28_889
*22397 TAP_TAPCELL_ROW_28_890
*22398 TAP_TAPCELL_ROW_28_891
*22399 TAP_TAPCELL_ROW_28_892
*22400 TAP_TAPCELL_ROW_28_893
*22401 TAP_TAPCELL_ROW_28_894
*22402 TAP_TAPCELL_ROW_28_895
*22403 TAP_TAPCELL_ROW_28_896
*22404 TAP_TAPCELL_ROW_28_897
*22405 TAP_TAPCELL_ROW_28_898
*22406 TAP_TAPCELL_ROW_28_899
*22407 TAP_TAPCELL_ROW_28_900
*22408 TAP_TAPCELL_ROW_28_901
*22409 TAP_TAPCELL_ROW_28_902
*22410 TAP_TAPCELL_ROW_28_903
*22411 TAP_TAPCELL_ROW_28_904
*22412 TAP_TAPCELL_ROW_29_905
*22413 TAP_TAPCELL_ROW_29_906
*22414 TAP_TAPCELL_ROW_29_907
*22415 TAP_TAPCELL_ROW_29_908
*22416 TAP_TAPCELL_ROW_29_909
*22417 TAP_TAPCELL_ROW_29_910
*22418 TAP_TAPCELL_ROW_29_911
*22419 TAP_TAPCELL_ROW_29_912
*22420 TAP_TAPCELL_ROW_29_913
*22421 TAP_TAPCELL_ROW_29_914
*22422 TAP_TAPCELL_ROW_29_915
*22423 TAP_TAPCELL_ROW_29_916
*22424 TAP_TAPCELL_ROW_29_917
*22425 TAP_TAPCELL_ROW_29_918
*22426 TAP_TAPCELL_ROW_29_919
*22427 TAP_TAPCELL_ROW_29_920
*22428 TAP_TAPCELL_ROW_29_921
*22429 TAP_TAPCELL_ROW_29_922
*22430 TAP_TAPCELL_ROW_2_405
*22431 TAP_TAPCELL_ROW_2_406
*22432 TAP_TAPCELL_ROW_2_407
*22433 TAP_TAPCELL_ROW_2_408
*22434 TAP_TAPCELL_ROW_2_409
*22435 TAP_TAPCELL_ROW_2_410
*22436 TAP_TAPCELL_ROW_2_411
*22437 TAP_TAPCELL_ROW_2_412
*22438 TAP_TAPCELL_ROW_2_413
*22439 TAP_TAPCELL_ROW_2_414
*22440 TAP_TAPCELL_ROW_2_415
*22441 TAP_TAPCELL_ROW_2_416
*22442 TAP_TAPCELL_ROW_2_417
*22443 TAP_TAPCELL_ROW_2_418
*22444 TAP_TAPCELL_ROW_2_419
*22445 TAP_TAPCELL_ROW_2_420
*22446 TAP_TAPCELL_ROW_2_421
*22447 TAP_TAPCELL_ROW_2_422
*22448 TAP_TAPCELL_ROW_2_423
*22449 TAP_TAPCELL_ROW_30_923
*22450 TAP_TAPCELL_ROW_30_924
*22451 TAP_TAPCELL_ROW_30_925
*22452 TAP_TAPCELL_ROW_30_926
*22453 TAP_TAPCELL_ROW_30_927
*22454 TAP_TAPCELL_ROW_30_928
*22455 TAP_TAPCELL_ROW_30_929
*22456 TAP_TAPCELL_ROW_30_930
*22457 TAP_TAPCELL_ROW_30_931
*22458 TAP_TAPCELL_ROW_30_932
*22459 TAP_TAPCELL_ROW_30_933
*22460 TAP_TAPCELL_ROW_30_934
*22461 TAP_TAPCELL_ROW_30_935
*22462 TAP_TAPCELL_ROW_30_936
*22463 TAP_TAPCELL_ROW_30_937
*22464 TAP_TAPCELL_ROW_30_938
*22465 TAP_TAPCELL_ROW_30_939
*22466 TAP_TAPCELL_ROW_30_940
*22467 TAP_TAPCELL_ROW_30_941
*22468 TAP_TAPCELL_ROW_31_942
*22469 TAP_TAPCELL_ROW_31_943
*22470 TAP_TAPCELL_ROW_31_944
*22471 TAP_TAPCELL_ROW_31_945
*22472 TAP_TAPCELL_ROW_31_946
*22473 TAP_TAPCELL_ROW_31_947
*22474 TAP_TAPCELL_ROW_31_948
*22475 TAP_TAPCELL_ROW_31_949
*22476 TAP_TAPCELL_ROW_31_950
*22477 TAP_TAPCELL_ROW_31_951
*22478 TAP_TAPCELL_ROW_31_952
*22479 TAP_TAPCELL_ROW_31_953
*22480 TAP_TAPCELL_ROW_31_954
*22481 TAP_TAPCELL_ROW_31_955
*22482 TAP_TAPCELL_ROW_31_956
*22483 TAP_TAPCELL_ROW_31_957
*22484 TAP_TAPCELL_ROW_31_958
*22485 TAP_TAPCELL_ROW_31_959
*22486 TAP_TAPCELL_ROW_32_960
*22487 TAP_TAPCELL_ROW_32_961
*22488 TAP_TAPCELL_ROW_32_962
*22489 TAP_TAPCELL_ROW_32_963
*22490 TAP_TAPCELL_ROW_32_964
*22491 TAP_TAPCELL_ROW_32_965
*22492 TAP_TAPCELL_ROW_32_966
*22493 TAP_TAPCELL_ROW_32_967
*22494 TAP_TAPCELL_ROW_32_968
*22495 TAP_TAPCELL_ROW_32_969
*22496 TAP_TAPCELL_ROW_32_970
*22497 TAP_TAPCELL_ROW_32_971
*22498 TAP_TAPCELL_ROW_32_972
*22499 TAP_TAPCELL_ROW_32_973
*22500 TAP_TAPCELL_ROW_32_974
*22501 TAP_TAPCELL_ROW_32_975
*22502 TAP_TAPCELL_ROW_32_976
*22503 TAP_TAPCELL_ROW_32_977
*22504 TAP_TAPCELL_ROW_32_978
*22505 TAP_TAPCELL_ROW_33_979
*22506 TAP_TAPCELL_ROW_33_980
*22507 TAP_TAPCELL_ROW_33_981
*22508 TAP_TAPCELL_ROW_33_982
*22509 TAP_TAPCELL_ROW_33_983
*22510 TAP_TAPCELL_ROW_33_984
*22511 TAP_TAPCELL_ROW_33_985
*22512 TAP_TAPCELL_ROW_33_986
*22513 TAP_TAPCELL_ROW_33_987
*22514 TAP_TAPCELL_ROW_33_988
*22515 TAP_TAPCELL_ROW_33_989
*22516 TAP_TAPCELL_ROW_33_990
*22517 TAP_TAPCELL_ROW_33_991
*22518 TAP_TAPCELL_ROW_33_992
*22519 TAP_TAPCELL_ROW_33_993
*22520 TAP_TAPCELL_ROW_33_994
*22521 TAP_TAPCELL_ROW_33_995
*22522 TAP_TAPCELL_ROW_33_996
*22523 TAP_TAPCELL_ROW_34_1000
*22524 TAP_TAPCELL_ROW_34_1001
*22525 TAP_TAPCELL_ROW_34_1002
*22526 TAP_TAPCELL_ROW_34_1003
*22527 TAP_TAPCELL_ROW_34_1004
*22528 TAP_TAPCELL_ROW_34_1005
*22529 TAP_TAPCELL_ROW_34_1006
*22530 TAP_TAPCELL_ROW_34_1007
*22531 TAP_TAPCELL_ROW_34_1008
*22532 TAP_TAPCELL_ROW_34_1009
*22533 TAP_TAPCELL_ROW_34_1010
*22534 TAP_TAPCELL_ROW_34_1011
*22535 TAP_TAPCELL_ROW_34_1012
*22536 TAP_TAPCELL_ROW_34_1013
*22537 TAP_TAPCELL_ROW_34_1014
*22538 TAP_TAPCELL_ROW_34_1015
*22539 TAP_TAPCELL_ROW_34_997
*22540 TAP_TAPCELL_ROW_34_998
*22541 TAP_TAPCELL_ROW_34_999
*22542 TAP_TAPCELL_ROW_35_1016
*22543 TAP_TAPCELL_ROW_35_1017
*22544 TAP_TAPCELL_ROW_35_1018
*22545 TAP_TAPCELL_ROW_35_1019
*22546 TAP_TAPCELL_ROW_35_1020
*22547 TAP_TAPCELL_ROW_35_1021
*22548 TAP_TAPCELL_ROW_35_1022
*22549 TAP_TAPCELL_ROW_35_1023
*22550 TAP_TAPCELL_ROW_35_1024
*22551 TAP_TAPCELL_ROW_35_1025
*22552 TAP_TAPCELL_ROW_35_1026
*22553 TAP_TAPCELL_ROW_35_1027
*22554 TAP_TAPCELL_ROW_35_1028
*22555 TAP_TAPCELL_ROW_35_1029
*22556 TAP_TAPCELL_ROW_35_1030
*22557 TAP_TAPCELL_ROW_35_1031
*22558 TAP_TAPCELL_ROW_35_1032
*22559 TAP_TAPCELL_ROW_35_1033
*22560 TAP_TAPCELL_ROW_36_1034
*22561 TAP_TAPCELL_ROW_36_1035
*22562 TAP_TAPCELL_ROW_36_1036
*22563 TAP_TAPCELL_ROW_36_1037
*22564 TAP_TAPCELL_ROW_36_1038
*22565 TAP_TAPCELL_ROW_36_1039
*22566 TAP_TAPCELL_ROW_36_1040
*22567 TAP_TAPCELL_ROW_36_1041
*22568 TAP_TAPCELL_ROW_36_1042
*22569 TAP_TAPCELL_ROW_36_1043
*22570 TAP_TAPCELL_ROW_36_1044
*22571 TAP_TAPCELL_ROW_36_1045
*22572 TAP_TAPCELL_ROW_36_1046
*22573 TAP_TAPCELL_ROW_36_1047
*22574 TAP_TAPCELL_ROW_36_1048
*22575 TAP_TAPCELL_ROW_36_1049
*22576 TAP_TAPCELL_ROW_36_1050
*22577 TAP_TAPCELL_ROW_36_1051
*22578 TAP_TAPCELL_ROW_36_1052
*22579 TAP_TAPCELL_ROW_37_1053
*22580 TAP_TAPCELL_ROW_37_1054
*22581 TAP_TAPCELL_ROW_37_1055
*22582 TAP_TAPCELL_ROW_37_1056
*22583 TAP_TAPCELL_ROW_37_1057
*22584 TAP_TAPCELL_ROW_37_1058
*22585 TAP_TAPCELL_ROW_37_1059
*22586 TAP_TAPCELL_ROW_37_1060
*22587 TAP_TAPCELL_ROW_37_1061
*22588 TAP_TAPCELL_ROW_37_1062
*22589 TAP_TAPCELL_ROW_37_1063
*22590 TAP_TAPCELL_ROW_37_1064
*22591 TAP_TAPCELL_ROW_37_1065
*22592 TAP_TAPCELL_ROW_37_1066
*22593 TAP_TAPCELL_ROW_37_1067
*22594 TAP_TAPCELL_ROW_37_1068
*22595 TAP_TAPCELL_ROW_37_1069
*22596 TAP_TAPCELL_ROW_37_1070
*22597 TAP_TAPCELL_ROW_38_1071
*22598 TAP_TAPCELL_ROW_38_1072
*22599 TAP_TAPCELL_ROW_38_1073
*22600 TAP_TAPCELL_ROW_38_1074
*22601 TAP_TAPCELL_ROW_38_1075
*22602 TAP_TAPCELL_ROW_38_1076
*22603 TAP_TAPCELL_ROW_38_1077
*22604 TAP_TAPCELL_ROW_38_1078
*22605 TAP_TAPCELL_ROW_38_1079
*22606 TAP_TAPCELL_ROW_38_1080
*22607 TAP_TAPCELL_ROW_38_1081
*22608 TAP_TAPCELL_ROW_38_1082
*22609 TAP_TAPCELL_ROW_38_1083
*22610 TAP_TAPCELL_ROW_38_1084
*22611 TAP_TAPCELL_ROW_38_1085
*22612 TAP_TAPCELL_ROW_38_1086
*22613 TAP_TAPCELL_ROW_38_1087
*22614 TAP_TAPCELL_ROW_38_1088
*22615 TAP_TAPCELL_ROW_38_1089
*22616 TAP_TAPCELL_ROW_39_1090
*22617 TAP_TAPCELL_ROW_39_1091
*22618 TAP_TAPCELL_ROW_39_1092
*22619 TAP_TAPCELL_ROW_39_1093
*22620 TAP_TAPCELL_ROW_39_1094
*22621 TAP_TAPCELL_ROW_39_1095
*22622 TAP_TAPCELL_ROW_39_1096
*22623 TAP_TAPCELL_ROW_39_1097
*22624 TAP_TAPCELL_ROW_39_1098
*22625 TAP_TAPCELL_ROW_39_1099
*22626 TAP_TAPCELL_ROW_39_1100
*22627 TAP_TAPCELL_ROW_39_1101
*22628 TAP_TAPCELL_ROW_39_1102
*22629 TAP_TAPCELL_ROW_39_1103
*22630 TAP_TAPCELL_ROW_39_1104
*22631 TAP_TAPCELL_ROW_39_1105
*22632 TAP_TAPCELL_ROW_39_1106
*22633 TAP_TAPCELL_ROW_39_1107
*22634 TAP_TAPCELL_ROW_3_424
*22635 TAP_TAPCELL_ROW_3_425
*22636 TAP_TAPCELL_ROW_3_426
*22637 TAP_TAPCELL_ROW_3_427
*22638 TAP_TAPCELL_ROW_3_428
*22639 TAP_TAPCELL_ROW_3_429
*22640 TAP_TAPCELL_ROW_3_430
*22641 TAP_TAPCELL_ROW_3_431
*22642 TAP_TAPCELL_ROW_3_432
*22643 TAP_TAPCELL_ROW_3_433
*22644 TAP_TAPCELL_ROW_3_434
*22645 TAP_TAPCELL_ROW_3_435
*22646 TAP_TAPCELL_ROW_3_436
*22647 TAP_TAPCELL_ROW_3_437
*22648 TAP_TAPCELL_ROW_3_438
*22649 TAP_TAPCELL_ROW_3_439
*22650 TAP_TAPCELL_ROW_3_440
*22651 TAP_TAPCELL_ROW_3_441
*22652 TAP_TAPCELL_ROW_40_1108
*22653 TAP_TAPCELL_ROW_40_1109
*22654 TAP_TAPCELL_ROW_40_1110
*22655 TAP_TAPCELL_ROW_40_1111
*22656 TAP_TAPCELL_ROW_40_1112
*22657 TAP_TAPCELL_ROW_40_1113
*22658 TAP_TAPCELL_ROW_40_1114
*22659 TAP_TAPCELL_ROW_40_1115
*22660 TAP_TAPCELL_ROW_40_1116
*22661 TAP_TAPCELL_ROW_40_1117
*22662 TAP_TAPCELL_ROW_40_1118
*22663 TAP_TAPCELL_ROW_40_1119
*22664 TAP_TAPCELL_ROW_40_1120
*22665 TAP_TAPCELL_ROW_40_1121
*22666 TAP_TAPCELL_ROW_40_1122
*22667 TAP_TAPCELL_ROW_40_1123
*22668 TAP_TAPCELL_ROW_40_1124
*22669 TAP_TAPCELL_ROW_40_1125
*22670 TAP_TAPCELL_ROW_40_1126
*22671 TAP_TAPCELL_ROW_41_1127
*22672 TAP_TAPCELL_ROW_41_1128
*22673 TAP_TAPCELL_ROW_41_1129
*22674 TAP_TAPCELL_ROW_41_1130
*22675 TAP_TAPCELL_ROW_41_1131
*22676 TAP_TAPCELL_ROW_41_1132
*22677 TAP_TAPCELL_ROW_41_1133
*22678 TAP_TAPCELL_ROW_41_1134
*22679 TAP_TAPCELL_ROW_41_1135
*22680 TAP_TAPCELL_ROW_41_1136
*22681 TAP_TAPCELL_ROW_41_1137
*22682 TAP_TAPCELL_ROW_41_1138
*22683 TAP_TAPCELL_ROW_41_1139
*22684 TAP_TAPCELL_ROW_41_1140
*22685 TAP_TAPCELL_ROW_41_1141
*22686 TAP_TAPCELL_ROW_41_1142
*22687 TAP_TAPCELL_ROW_41_1143
*22688 TAP_TAPCELL_ROW_41_1144
*22689 TAP_TAPCELL_ROW_42_1145
*22690 TAP_TAPCELL_ROW_42_1146
*22691 TAP_TAPCELL_ROW_42_1147
*22692 TAP_TAPCELL_ROW_42_1148
*22693 TAP_TAPCELL_ROW_42_1149
*22694 TAP_TAPCELL_ROW_42_1150
*22695 TAP_TAPCELL_ROW_42_1151
*22696 TAP_TAPCELL_ROW_42_1152
*22697 TAP_TAPCELL_ROW_42_1153
*22698 TAP_TAPCELL_ROW_42_1154
*22699 TAP_TAPCELL_ROW_42_1155
*22700 TAP_TAPCELL_ROW_42_1156
*22701 TAP_TAPCELL_ROW_42_1157
*22702 TAP_TAPCELL_ROW_42_1158
*22703 TAP_TAPCELL_ROW_42_1159
*22704 TAP_TAPCELL_ROW_42_1160
*22705 TAP_TAPCELL_ROW_42_1161
*22706 TAP_TAPCELL_ROW_42_1162
*22707 TAP_TAPCELL_ROW_42_1163
*22708 TAP_TAPCELL_ROW_43_1164
*22709 TAP_TAPCELL_ROW_43_1165
*22710 TAP_TAPCELL_ROW_43_1166
*22711 TAP_TAPCELL_ROW_43_1167
*22712 TAP_TAPCELL_ROW_43_1168
*22713 TAP_TAPCELL_ROW_43_1169
*22714 TAP_TAPCELL_ROW_43_1170
*22715 TAP_TAPCELL_ROW_43_1171
*22716 TAP_TAPCELL_ROW_43_1172
*22717 TAP_TAPCELL_ROW_43_1173
*22718 TAP_TAPCELL_ROW_43_1174
*22719 TAP_TAPCELL_ROW_43_1175
*22720 TAP_TAPCELL_ROW_43_1176
*22721 TAP_TAPCELL_ROW_43_1177
*22722 TAP_TAPCELL_ROW_43_1178
*22723 TAP_TAPCELL_ROW_43_1179
*22724 TAP_TAPCELL_ROW_43_1180
*22725 TAP_TAPCELL_ROW_43_1181
*22726 TAP_TAPCELL_ROW_44_1182
*22727 TAP_TAPCELL_ROW_44_1183
*22728 TAP_TAPCELL_ROW_44_1184
*22729 TAP_TAPCELL_ROW_44_1185
*22730 TAP_TAPCELL_ROW_44_1186
*22731 TAP_TAPCELL_ROW_44_1187
*22732 TAP_TAPCELL_ROW_44_1188
*22733 TAP_TAPCELL_ROW_44_1189
*22734 TAP_TAPCELL_ROW_44_1190
*22735 TAP_TAPCELL_ROW_44_1191
*22736 TAP_TAPCELL_ROW_44_1192
*22737 TAP_TAPCELL_ROW_44_1193
*22738 TAP_TAPCELL_ROW_44_1194
*22739 TAP_TAPCELL_ROW_44_1195
*22740 TAP_TAPCELL_ROW_44_1196
*22741 TAP_TAPCELL_ROW_44_1197
*22742 TAP_TAPCELL_ROW_44_1198
*22743 TAP_TAPCELL_ROW_44_1199
*22744 TAP_TAPCELL_ROW_44_1200
*22745 TAP_TAPCELL_ROW_45_1201
*22746 TAP_TAPCELL_ROW_45_1202
*22747 TAP_TAPCELL_ROW_45_1203
*22748 TAP_TAPCELL_ROW_45_1204
*22749 TAP_TAPCELL_ROW_45_1205
*22750 TAP_TAPCELL_ROW_45_1206
*22751 TAP_TAPCELL_ROW_45_1207
*22752 TAP_TAPCELL_ROW_45_1208
*22753 TAP_TAPCELL_ROW_45_1209
*22754 TAP_TAPCELL_ROW_45_1210
*22755 TAP_TAPCELL_ROW_45_1211
*22756 TAP_TAPCELL_ROW_45_1212
*22757 TAP_TAPCELL_ROW_45_1213
*22758 TAP_TAPCELL_ROW_45_1214
*22759 TAP_TAPCELL_ROW_45_1215
*22760 TAP_TAPCELL_ROW_45_1216
*22761 TAP_TAPCELL_ROW_45_1217
*22762 TAP_TAPCELL_ROW_45_1218
*22763 TAP_TAPCELL_ROW_46_1219
*22764 TAP_TAPCELL_ROW_46_1220
*22765 TAP_TAPCELL_ROW_46_1221
*22766 TAP_TAPCELL_ROW_46_1222
*22767 TAP_TAPCELL_ROW_46_1223
*22768 TAP_TAPCELL_ROW_46_1224
*22769 TAP_TAPCELL_ROW_46_1225
*22770 TAP_TAPCELL_ROW_46_1226
*22771 TAP_TAPCELL_ROW_46_1227
*22772 TAP_TAPCELL_ROW_46_1228
*22773 TAP_TAPCELL_ROW_46_1229
*22774 TAP_TAPCELL_ROW_46_1230
*22775 TAP_TAPCELL_ROW_46_1231
*22776 TAP_TAPCELL_ROW_46_1232
*22777 TAP_TAPCELL_ROW_46_1233
*22778 TAP_TAPCELL_ROW_46_1234
*22779 TAP_TAPCELL_ROW_46_1235
*22780 TAP_TAPCELL_ROW_46_1236
*22781 TAP_TAPCELL_ROW_46_1237
*22782 TAP_TAPCELL_ROW_47_1238
*22783 TAP_TAPCELL_ROW_47_1239
*22784 TAP_TAPCELL_ROW_47_1240
*22785 TAP_TAPCELL_ROW_47_1241
*22786 TAP_TAPCELL_ROW_47_1242
*22787 TAP_TAPCELL_ROW_47_1243
*22788 TAP_TAPCELL_ROW_47_1244
*22789 TAP_TAPCELL_ROW_47_1245
*22790 TAP_TAPCELL_ROW_47_1246
*22791 TAP_TAPCELL_ROW_47_1247
*22792 TAP_TAPCELL_ROW_47_1248
*22793 TAP_TAPCELL_ROW_47_1249
*22794 TAP_TAPCELL_ROW_47_1250
*22795 TAP_TAPCELL_ROW_47_1251
*22796 TAP_TAPCELL_ROW_47_1252
*22797 TAP_TAPCELL_ROW_47_1253
*22798 TAP_TAPCELL_ROW_47_1254
*22799 TAP_TAPCELL_ROW_47_1255
*22800 TAP_TAPCELL_ROW_48_1256
*22801 TAP_TAPCELL_ROW_48_1257
*22802 TAP_TAPCELL_ROW_48_1258
*22803 TAP_TAPCELL_ROW_48_1259
*22804 TAP_TAPCELL_ROW_48_1260
*22805 TAP_TAPCELL_ROW_48_1261
*22806 TAP_TAPCELL_ROW_48_1262
*22807 TAP_TAPCELL_ROW_48_1263
*22808 TAP_TAPCELL_ROW_48_1264
*22809 TAP_TAPCELL_ROW_48_1265
*22810 TAP_TAPCELL_ROW_48_1266
*22811 TAP_TAPCELL_ROW_48_1267
*22812 TAP_TAPCELL_ROW_48_1268
*22813 TAP_TAPCELL_ROW_48_1269
*22814 TAP_TAPCELL_ROW_48_1270
*22815 TAP_TAPCELL_ROW_48_1271
*22816 TAP_TAPCELL_ROW_48_1272
*22817 TAP_TAPCELL_ROW_48_1273
*22818 TAP_TAPCELL_ROW_48_1274
*22819 TAP_TAPCELL_ROW_49_1275
*22820 TAP_TAPCELL_ROW_49_1276
*22821 TAP_TAPCELL_ROW_49_1277
*22822 TAP_TAPCELL_ROW_49_1278
*22823 TAP_TAPCELL_ROW_49_1279
*22824 TAP_TAPCELL_ROW_49_1280
*22825 TAP_TAPCELL_ROW_49_1281
*22826 TAP_TAPCELL_ROW_49_1282
*22827 TAP_TAPCELL_ROW_49_1283
*22828 TAP_TAPCELL_ROW_49_1284
*22829 TAP_TAPCELL_ROW_49_1285
*22830 TAP_TAPCELL_ROW_49_1286
*22831 TAP_TAPCELL_ROW_49_1287
*22832 TAP_TAPCELL_ROW_49_1288
*22833 TAP_TAPCELL_ROW_49_1289
*22834 TAP_TAPCELL_ROW_49_1290
*22835 TAP_TAPCELL_ROW_49_1291
*22836 TAP_TAPCELL_ROW_49_1292
*22837 TAP_TAPCELL_ROW_4_442
*22838 TAP_TAPCELL_ROW_4_443
*22839 TAP_TAPCELL_ROW_4_444
*22840 TAP_TAPCELL_ROW_4_445
*22841 TAP_TAPCELL_ROW_4_446
*22842 TAP_TAPCELL_ROW_4_447
*22843 TAP_TAPCELL_ROW_4_448
*22844 TAP_TAPCELL_ROW_4_449
*22845 TAP_TAPCELL_ROW_4_450
*22846 TAP_TAPCELL_ROW_4_451
*22847 TAP_TAPCELL_ROW_4_452
*22848 TAP_TAPCELL_ROW_4_453
*22849 TAP_TAPCELL_ROW_4_454
*22850 TAP_TAPCELL_ROW_4_455
*22851 TAP_TAPCELL_ROW_4_456
*22852 TAP_TAPCELL_ROW_4_457
*22853 TAP_TAPCELL_ROW_4_458
*22854 TAP_TAPCELL_ROW_4_459
*22855 TAP_TAPCELL_ROW_4_460
*22856 TAP_TAPCELL_ROW_50_1293
*22857 TAP_TAPCELL_ROW_50_1294
*22858 TAP_TAPCELL_ROW_50_1295
*22859 TAP_TAPCELL_ROW_50_1296
*22860 TAP_TAPCELL_ROW_50_1297
*22861 TAP_TAPCELL_ROW_50_1298
*22862 TAP_TAPCELL_ROW_50_1299
*22863 TAP_TAPCELL_ROW_50_1300
*22864 TAP_TAPCELL_ROW_50_1301
*22865 TAP_TAPCELL_ROW_50_1302
*22866 TAP_TAPCELL_ROW_50_1303
*22867 TAP_TAPCELL_ROW_50_1304
*22868 TAP_TAPCELL_ROW_50_1305
*22869 TAP_TAPCELL_ROW_50_1306
*22870 TAP_TAPCELL_ROW_50_1307
*22871 TAP_TAPCELL_ROW_50_1308
*22872 TAP_TAPCELL_ROW_50_1309
*22873 TAP_TAPCELL_ROW_50_1310
*22874 TAP_TAPCELL_ROW_50_1311
*22875 TAP_TAPCELL_ROW_51_1312
*22876 TAP_TAPCELL_ROW_51_1313
*22877 TAP_TAPCELL_ROW_51_1314
*22878 TAP_TAPCELL_ROW_51_1315
*22879 TAP_TAPCELL_ROW_51_1316
*22880 TAP_TAPCELL_ROW_51_1317
*22881 TAP_TAPCELL_ROW_51_1318
*22882 TAP_TAPCELL_ROW_51_1319
*22883 TAP_TAPCELL_ROW_51_1320
*22884 TAP_TAPCELL_ROW_51_1321
*22885 TAP_TAPCELL_ROW_51_1322
*22886 TAP_TAPCELL_ROW_51_1323
*22887 TAP_TAPCELL_ROW_51_1324
*22888 TAP_TAPCELL_ROW_51_1325
*22889 TAP_TAPCELL_ROW_51_1326
*22890 TAP_TAPCELL_ROW_51_1327
*22891 TAP_TAPCELL_ROW_51_1328
*22892 TAP_TAPCELL_ROW_51_1329
*22893 TAP_TAPCELL_ROW_52_1330
*22894 TAP_TAPCELL_ROW_52_1331
*22895 TAP_TAPCELL_ROW_52_1332
*22896 TAP_TAPCELL_ROW_52_1333
*22897 TAP_TAPCELL_ROW_52_1334
*22898 TAP_TAPCELL_ROW_52_1335
*22899 TAP_TAPCELL_ROW_52_1336
*22900 TAP_TAPCELL_ROW_52_1337
*22901 TAP_TAPCELL_ROW_52_1338
*22902 TAP_TAPCELL_ROW_52_1339
*22903 TAP_TAPCELL_ROW_52_1340
*22904 TAP_TAPCELL_ROW_52_1341
*22905 TAP_TAPCELL_ROW_52_1342
*22906 TAP_TAPCELL_ROW_52_1343
*22907 TAP_TAPCELL_ROW_52_1344
*22908 TAP_TAPCELL_ROW_52_1345
*22909 TAP_TAPCELL_ROW_52_1346
*22910 TAP_TAPCELL_ROW_52_1347
*22911 TAP_TAPCELL_ROW_52_1348
*22912 TAP_TAPCELL_ROW_53_1349
*22913 TAP_TAPCELL_ROW_53_1350
*22914 TAP_TAPCELL_ROW_53_1351
*22915 TAP_TAPCELL_ROW_53_1352
*22916 TAP_TAPCELL_ROW_53_1353
*22917 TAP_TAPCELL_ROW_53_1354
*22918 TAP_TAPCELL_ROW_53_1355
*22919 TAP_TAPCELL_ROW_53_1356
*22920 TAP_TAPCELL_ROW_53_1357
*22921 TAP_TAPCELL_ROW_53_1358
*22922 TAP_TAPCELL_ROW_53_1359
*22923 TAP_TAPCELL_ROW_53_1360
*22924 TAP_TAPCELL_ROW_53_1361
*22925 TAP_TAPCELL_ROW_53_1362
*22926 TAP_TAPCELL_ROW_53_1363
*22927 TAP_TAPCELL_ROW_53_1364
*22928 TAP_TAPCELL_ROW_53_1365
*22929 TAP_TAPCELL_ROW_53_1366
*22930 TAP_TAPCELL_ROW_54_1367
*22931 TAP_TAPCELL_ROW_54_1368
*22932 TAP_TAPCELL_ROW_54_1369
*22933 TAP_TAPCELL_ROW_54_1370
*22934 TAP_TAPCELL_ROW_54_1371
*22935 TAP_TAPCELL_ROW_54_1372
*22936 TAP_TAPCELL_ROW_54_1373
*22937 TAP_TAPCELL_ROW_54_1374
*22938 TAP_TAPCELL_ROW_54_1375
*22939 TAP_TAPCELL_ROW_54_1376
*22940 TAP_TAPCELL_ROW_54_1377
*22941 TAP_TAPCELL_ROW_54_1378
*22942 TAP_TAPCELL_ROW_54_1379
*22943 TAP_TAPCELL_ROW_54_1380
*22944 TAP_TAPCELL_ROW_54_1381
*22945 TAP_TAPCELL_ROW_54_1382
*22946 TAP_TAPCELL_ROW_54_1383
*22947 TAP_TAPCELL_ROW_54_1384
*22948 TAP_TAPCELL_ROW_54_1385
*22949 TAP_TAPCELL_ROW_55_1386
*22950 TAP_TAPCELL_ROW_55_1387
*22951 TAP_TAPCELL_ROW_55_1388
*22952 TAP_TAPCELL_ROW_55_1389
*22953 TAP_TAPCELL_ROW_55_1390
*22954 TAP_TAPCELL_ROW_55_1391
*22955 TAP_TAPCELL_ROW_55_1392
*22956 TAP_TAPCELL_ROW_55_1393
*22957 TAP_TAPCELL_ROW_55_1394
*22958 TAP_TAPCELL_ROW_55_1395
*22959 TAP_TAPCELL_ROW_55_1396
*22960 TAP_TAPCELL_ROW_55_1397
*22961 TAP_TAPCELL_ROW_55_1398
*22962 TAP_TAPCELL_ROW_55_1399
*22963 TAP_TAPCELL_ROW_55_1400
*22964 TAP_TAPCELL_ROW_55_1401
*22965 TAP_TAPCELL_ROW_55_1402
*22966 TAP_TAPCELL_ROW_55_1403
*22967 TAP_TAPCELL_ROW_56_1404
*22968 TAP_TAPCELL_ROW_56_1405
*22969 TAP_TAPCELL_ROW_56_1406
*22970 TAP_TAPCELL_ROW_56_1407
*22971 TAP_TAPCELL_ROW_56_1408
*22972 TAP_TAPCELL_ROW_56_1409
*22973 TAP_TAPCELL_ROW_56_1410
*22974 TAP_TAPCELL_ROW_56_1411
*22975 TAP_TAPCELL_ROW_56_1412
*22976 TAP_TAPCELL_ROW_56_1413
*22977 TAP_TAPCELL_ROW_56_1414
*22978 TAP_TAPCELL_ROW_56_1415
*22979 TAP_TAPCELL_ROW_56_1416
*22980 TAP_TAPCELL_ROW_56_1417
*22981 TAP_TAPCELL_ROW_56_1418
*22982 TAP_TAPCELL_ROW_56_1419
*22983 TAP_TAPCELL_ROW_56_1420
*22984 TAP_TAPCELL_ROW_56_1421
*22985 TAP_TAPCELL_ROW_56_1422
*22986 TAP_TAPCELL_ROW_57_1423
*22987 TAP_TAPCELL_ROW_57_1424
*22988 TAP_TAPCELL_ROW_57_1425
*22989 TAP_TAPCELL_ROW_57_1426
*22990 TAP_TAPCELL_ROW_57_1427
*22991 TAP_TAPCELL_ROW_57_1428
*22992 TAP_TAPCELL_ROW_57_1429
*22993 TAP_TAPCELL_ROW_57_1430
*22994 TAP_TAPCELL_ROW_57_1431
*22995 TAP_TAPCELL_ROW_57_1432
*22996 TAP_TAPCELL_ROW_57_1433
*22997 TAP_TAPCELL_ROW_57_1434
*22998 TAP_TAPCELL_ROW_57_1435
*22999 TAP_TAPCELL_ROW_57_1436
*23000 TAP_TAPCELL_ROW_57_1437
*23001 TAP_TAPCELL_ROW_57_1438
*23002 TAP_TAPCELL_ROW_57_1439
*23003 TAP_TAPCELL_ROW_57_1440
*23004 TAP_TAPCELL_ROW_58_1441
*23005 TAP_TAPCELL_ROW_58_1442
*23006 TAP_TAPCELL_ROW_58_1443
*23007 TAP_TAPCELL_ROW_58_1444
*23008 TAP_TAPCELL_ROW_58_1445
*23009 TAP_TAPCELL_ROW_58_1446
*23010 TAP_TAPCELL_ROW_58_1447
*23011 TAP_TAPCELL_ROW_58_1448
*23012 TAP_TAPCELL_ROW_58_1449
*23013 TAP_TAPCELL_ROW_58_1450
*23014 TAP_TAPCELL_ROW_58_1451
*23015 TAP_TAPCELL_ROW_58_1452
*23016 TAP_TAPCELL_ROW_58_1453
*23017 TAP_TAPCELL_ROW_58_1454
*23018 TAP_TAPCELL_ROW_58_1455
*23019 TAP_TAPCELL_ROW_58_1456
*23020 TAP_TAPCELL_ROW_58_1457
*23021 TAP_TAPCELL_ROW_58_1458
*23022 TAP_TAPCELL_ROW_58_1459
*23023 TAP_TAPCELL_ROW_59_1460
*23024 TAP_TAPCELL_ROW_59_1461
*23025 TAP_TAPCELL_ROW_59_1462
*23026 TAP_TAPCELL_ROW_59_1463
*23027 TAP_TAPCELL_ROW_59_1464
*23028 TAP_TAPCELL_ROW_59_1465
*23029 TAP_TAPCELL_ROW_59_1466
*23030 TAP_TAPCELL_ROW_59_1467
*23031 TAP_TAPCELL_ROW_59_1468
*23032 TAP_TAPCELL_ROW_59_1469
*23033 TAP_TAPCELL_ROW_59_1470
*23034 TAP_TAPCELL_ROW_59_1471
*23035 TAP_TAPCELL_ROW_59_1472
*23036 TAP_TAPCELL_ROW_59_1473
*23037 TAP_TAPCELL_ROW_59_1474
*23038 TAP_TAPCELL_ROW_59_1475
*23039 TAP_TAPCELL_ROW_59_1476
*23040 TAP_TAPCELL_ROW_59_1477
*23041 TAP_TAPCELL_ROW_5_461
*23042 TAP_TAPCELL_ROW_5_462
*23043 TAP_TAPCELL_ROW_5_463
*23044 TAP_TAPCELL_ROW_5_464
*23045 TAP_TAPCELL_ROW_5_465
*23046 TAP_TAPCELL_ROW_5_466
*23047 TAP_TAPCELL_ROW_5_467
*23048 TAP_TAPCELL_ROW_5_468
*23049 TAP_TAPCELL_ROW_5_469
*23050 TAP_TAPCELL_ROW_5_470
*23051 TAP_TAPCELL_ROW_5_471
*23052 TAP_TAPCELL_ROW_5_472
*23053 TAP_TAPCELL_ROW_5_473
*23054 TAP_TAPCELL_ROW_5_474
*23055 TAP_TAPCELL_ROW_5_475
*23056 TAP_TAPCELL_ROW_5_476
*23057 TAP_TAPCELL_ROW_5_477
*23058 TAP_TAPCELL_ROW_5_478
*23059 TAP_TAPCELL_ROW_60_1478
*23060 TAP_TAPCELL_ROW_60_1479
*23061 TAP_TAPCELL_ROW_60_1480
*23062 TAP_TAPCELL_ROW_60_1481
*23063 TAP_TAPCELL_ROW_60_1482
*23064 TAP_TAPCELL_ROW_60_1483
*23065 TAP_TAPCELL_ROW_60_1484
*23066 TAP_TAPCELL_ROW_60_1485
*23067 TAP_TAPCELL_ROW_60_1486
*23068 TAP_TAPCELL_ROW_60_1487
*23069 TAP_TAPCELL_ROW_60_1488
*23070 TAP_TAPCELL_ROW_60_1489
*23071 TAP_TAPCELL_ROW_60_1490
*23072 TAP_TAPCELL_ROW_60_1491
*23073 TAP_TAPCELL_ROW_60_1492
*23074 TAP_TAPCELL_ROW_60_1493
*23075 TAP_TAPCELL_ROW_60_1494
*23076 TAP_TAPCELL_ROW_60_1495
*23077 TAP_TAPCELL_ROW_60_1496
*23078 TAP_TAPCELL_ROW_61_1497
*23079 TAP_TAPCELL_ROW_61_1498
*23080 TAP_TAPCELL_ROW_61_1499
*23081 TAP_TAPCELL_ROW_61_1500
*23082 TAP_TAPCELL_ROW_61_1501
*23083 TAP_TAPCELL_ROW_61_1502
*23084 TAP_TAPCELL_ROW_61_1503
*23085 TAP_TAPCELL_ROW_61_1504
*23086 TAP_TAPCELL_ROW_61_1505
*23087 TAP_TAPCELL_ROW_61_1506
*23088 TAP_TAPCELL_ROW_61_1507
*23089 TAP_TAPCELL_ROW_61_1508
*23090 TAP_TAPCELL_ROW_61_1509
*23091 TAP_TAPCELL_ROW_61_1510
*23092 TAP_TAPCELL_ROW_61_1511
*23093 TAP_TAPCELL_ROW_61_1512
*23094 TAP_TAPCELL_ROW_61_1513
*23095 TAP_TAPCELL_ROW_61_1514
*23096 TAP_TAPCELL_ROW_62_1515
*23097 TAP_TAPCELL_ROW_62_1516
*23098 TAP_TAPCELL_ROW_62_1517
*23099 TAP_TAPCELL_ROW_62_1518
*23100 TAP_TAPCELL_ROW_62_1519
*23101 TAP_TAPCELL_ROW_62_1520
*23102 TAP_TAPCELL_ROW_62_1521
*23103 TAP_TAPCELL_ROW_62_1522
*23104 TAP_TAPCELL_ROW_62_1523
*23105 TAP_TAPCELL_ROW_62_1524
*23106 TAP_TAPCELL_ROW_62_1525
*23107 TAP_TAPCELL_ROW_62_1526
*23108 TAP_TAPCELL_ROW_62_1527
*23109 TAP_TAPCELL_ROW_62_1528
*23110 TAP_TAPCELL_ROW_62_1529
*23111 TAP_TAPCELL_ROW_62_1530
*23112 TAP_TAPCELL_ROW_62_1531
*23113 TAP_TAPCELL_ROW_62_1532
*23114 TAP_TAPCELL_ROW_62_1533
*23115 TAP_TAPCELL_ROW_63_1534
*23116 TAP_TAPCELL_ROW_63_1535
*23117 TAP_TAPCELL_ROW_63_1536
*23118 TAP_TAPCELL_ROW_63_1537
*23119 TAP_TAPCELL_ROW_63_1538
*23120 TAP_TAPCELL_ROW_63_1539
*23121 TAP_TAPCELL_ROW_63_1540
*23122 TAP_TAPCELL_ROW_63_1541
*23123 TAP_TAPCELL_ROW_63_1542
*23124 TAP_TAPCELL_ROW_63_1543
*23125 TAP_TAPCELL_ROW_63_1544
*23126 TAP_TAPCELL_ROW_63_1545
*23127 TAP_TAPCELL_ROW_63_1546
*23128 TAP_TAPCELL_ROW_63_1547
*23129 TAP_TAPCELL_ROW_63_1548
*23130 TAP_TAPCELL_ROW_63_1549
*23131 TAP_TAPCELL_ROW_63_1550
*23132 TAP_TAPCELL_ROW_63_1551
*23133 TAP_TAPCELL_ROW_64_1552
*23134 TAP_TAPCELL_ROW_64_1553
*23135 TAP_TAPCELL_ROW_64_1554
*23136 TAP_TAPCELL_ROW_64_1555
*23137 TAP_TAPCELL_ROW_64_1556
*23138 TAP_TAPCELL_ROW_64_1557
*23139 TAP_TAPCELL_ROW_64_1558
*23140 TAP_TAPCELL_ROW_64_1559
*23141 TAP_TAPCELL_ROW_64_1560
*23142 TAP_TAPCELL_ROW_64_1561
*23143 TAP_TAPCELL_ROW_64_1562
*23144 TAP_TAPCELL_ROW_64_1563
*23145 TAP_TAPCELL_ROW_64_1564
*23146 TAP_TAPCELL_ROW_64_1565
*23147 TAP_TAPCELL_ROW_64_1566
*23148 TAP_TAPCELL_ROW_64_1567
*23149 TAP_TAPCELL_ROW_64_1568
*23150 TAP_TAPCELL_ROW_64_1569
*23151 TAP_TAPCELL_ROW_64_1570
*23152 TAP_TAPCELL_ROW_65_1571
*23153 TAP_TAPCELL_ROW_65_1572
*23154 TAP_TAPCELL_ROW_65_1573
*23155 TAP_TAPCELL_ROW_65_1574
*23156 TAP_TAPCELL_ROW_65_1575
*23157 TAP_TAPCELL_ROW_65_1576
*23158 TAP_TAPCELL_ROW_65_1577
*23159 TAP_TAPCELL_ROW_65_1578
*23160 TAP_TAPCELL_ROW_65_1579
*23161 TAP_TAPCELL_ROW_65_1580
*23162 TAP_TAPCELL_ROW_65_1581
*23163 TAP_TAPCELL_ROW_65_1582
*23164 TAP_TAPCELL_ROW_65_1583
*23165 TAP_TAPCELL_ROW_65_1584
*23166 TAP_TAPCELL_ROW_65_1585
*23167 TAP_TAPCELL_ROW_65_1586
*23168 TAP_TAPCELL_ROW_65_1587
*23169 TAP_TAPCELL_ROW_65_1588
*23170 TAP_TAPCELL_ROW_66_1589
*23171 TAP_TAPCELL_ROW_66_1590
*23172 TAP_TAPCELL_ROW_66_1591
*23173 TAP_TAPCELL_ROW_66_1592
*23174 TAP_TAPCELL_ROW_66_1593
*23175 TAP_TAPCELL_ROW_66_1594
*23176 TAP_TAPCELL_ROW_66_1595
*23177 TAP_TAPCELL_ROW_66_1596
*23178 TAP_TAPCELL_ROW_66_1597
*23179 TAP_TAPCELL_ROW_66_1598
*23180 TAP_TAPCELL_ROW_66_1599
*23181 TAP_TAPCELL_ROW_66_1600
*23182 TAP_TAPCELL_ROW_66_1601
*23183 TAP_TAPCELL_ROW_66_1602
*23184 TAP_TAPCELL_ROW_66_1603
*23185 TAP_TAPCELL_ROW_66_1604
*23186 TAP_TAPCELL_ROW_66_1605
*23187 TAP_TAPCELL_ROW_66_1606
*23188 TAP_TAPCELL_ROW_66_1607
*23189 TAP_TAPCELL_ROW_67_1608
*23190 TAP_TAPCELL_ROW_67_1609
*23191 TAP_TAPCELL_ROW_67_1610
*23192 TAP_TAPCELL_ROW_67_1611
*23193 TAP_TAPCELL_ROW_67_1612
*23194 TAP_TAPCELL_ROW_67_1613
*23195 TAP_TAPCELL_ROW_67_1614
*23196 TAP_TAPCELL_ROW_67_1615
*23197 TAP_TAPCELL_ROW_67_1616
*23198 TAP_TAPCELL_ROW_67_1617
*23199 TAP_TAPCELL_ROW_67_1618
*23200 TAP_TAPCELL_ROW_67_1619
*23201 TAP_TAPCELL_ROW_67_1620
*23202 TAP_TAPCELL_ROW_67_1621
*23203 TAP_TAPCELL_ROW_67_1622
*23204 TAP_TAPCELL_ROW_67_1623
*23205 TAP_TAPCELL_ROW_67_1624
*23206 TAP_TAPCELL_ROW_67_1625
*23207 TAP_TAPCELL_ROW_68_1626
*23208 TAP_TAPCELL_ROW_68_1627
*23209 TAP_TAPCELL_ROW_68_1628
*23210 TAP_TAPCELL_ROW_68_1629
*23211 TAP_TAPCELL_ROW_68_1630
*23212 TAP_TAPCELL_ROW_68_1631
*23213 TAP_TAPCELL_ROW_68_1632
*23214 TAP_TAPCELL_ROW_68_1633
*23215 TAP_TAPCELL_ROW_68_1634
*23216 TAP_TAPCELL_ROW_68_1635
*23217 TAP_TAPCELL_ROW_68_1636
*23218 TAP_TAPCELL_ROW_68_1637
*23219 TAP_TAPCELL_ROW_68_1638
*23220 TAP_TAPCELL_ROW_68_1639
*23221 TAP_TAPCELL_ROW_68_1640
*23222 TAP_TAPCELL_ROW_68_1641
*23223 TAP_TAPCELL_ROW_68_1642
*23224 TAP_TAPCELL_ROW_68_1643
*23225 TAP_TAPCELL_ROW_68_1644
*23226 TAP_TAPCELL_ROW_69_1645
*23227 TAP_TAPCELL_ROW_69_1646
*23228 TAP_TAPCELL_ROW_69_1647
*23229 TAP_TAPCELL_ROW_69_1648
*23230 TAP_TAPCELL_ROW_69_1649
*23231 TAP_TAPCELL_ROW_69_1650
*23232 TAP_TAPCELL_ROW_69_1651
*23233 TAP_TAPCELL_ROW_69_1652
*23234 TAP_TAPCELL_ROW_69_1653
*23235 TAP_TAPCELL_ROW_69_1654
*23236 TAP_TAPCELL_ROW_69_1655
*23237 TAP_TAPCELL_ROW_69_1656
*23238 TAP_TAPCELL_ROW_69_1657
*23239 TAP_TAPCELL_ROW_69_1658
*23240 TAP_TAPCELL_ROW_69_1659
*23241 TAP_TAPCELL_ROW_69_1660
*23242 TAP_TAPCELL_ROW_69_1661
*23243 TAP_TAPCELL_ROW_69_1662
*23244 TAP_TAPCELL_ROW_6_479
*23245 TAP_TAPCELL_ROW_6_480
*23246 TAP_TAPCELL_ROW_6_481
*23247 TAP_TAPCELL_ROW_6_482
*23248 TAP_TAPCELL_ROW_6_483
*23249 TAP_TAPCELL_ROW_6_484
*23250 TAP_TAPCELL_ROW_6_485
*23251 TAP_TAPCELL_ROW_6_486
*23252 TAP_TAPCELL_ROW_6_487
*23253 TAP_TAPCELL_ROW_6_488
*23254 TAP_TAPCELL_ROW_6_489
*23255 TAP_TAPCELL_ROW_6_490
*23256 TAP_TAPCELL_ROW_6_491
*23257 TAP_TAPCELL_ROW_6_492
*23258 TAP_TAPCELL_ROW_6_493
*23259 TAP_TAPCELL_ROW_6_494
*23260 TAP_TAPCELL_ROW_6_495
*23261 TAP_TAPCELL_ROW_6_496
*23262 TAP_TAPCELL_ROW_6_497
*23263 TAP_TAPCELL_ROW_70_1663
*23264 TAP_TAPCELL_ROW_70_1664
*23265 TAP_TAPCELL_ROW_70_1665
*23266 TAP_TAPCELL_ROW_70_1666
*23267 TAP_TAPCELL_ROW_70_1667
*23268 TAP_TAPCELL_ROW_70_1668
*23269 TAP_TAPCELL_ROW_70_1669
*23270 TAP_TAPCELL_ROW_70_1670
*23271 TAP_TAPCELL_ROW_70_1671
*23272 TAP_TAPCELL_ROW_70_1672
*23273 TAP_TAPCELL_ROW_70_1673
*23274 TAP_TAPCELL_ROW_70_1674
*23275 TAP_TAPCELL_ROW_70_1675
*23276 TAP_TAPCELL_ROW_70_1676
*23277 TAP_TAPCELL_ROW_70_1677
*23278 TAP_TAPCELL_ROW_70_1678
*23279 TAP_TAPCELL_ROW_70_1679
*23280 TAP_TAPCELL_ROW_70_1680
*23281 TAP_TAPCELL_ROW_70_1681
*23282 TAP_TAPCELL_ROW_71_1682
*23283 TAP_TAPCELL_ROW_71_1683
*23284 TAP_TAPCELL_ROW_71_1684
*23285 TAP_TAPCELL_ROW_71_1685
*23286 TAP_TAPCELL_ROW_71_1686
*23287 TAP_TAPCELL_ROW_71_1687
*23288 TAP_TAPCELL_ROW_71_1688
*23289 TAP_TAPCELL_ROW_71_1689
*23290 TAP_TAPCELL_ROW_71_1690
*23291 TAP_TAPCELL_ROW_71_1691
*23292 TAP_TAPCELL_ROW_71_1692
*23293 TAP_TAPCELL_ROW_71_1693
*23294 TAP_TAPCELL_ROW_71_1694
*23295 TAP_TAPCELL_ROW_71_1695
*23296 TAP_TAPCELL_ROW_71_1696
*23297 TAP_TAPCELL_ROW_71_1697
*23298 TAP_TAPCELL_ROW_71_1698
*23299 TAP_TAPCELL_ROW_71_1699
*23300 TAP_TAPCELL_ROW_72_1700
*23301 TAP_TAPCELL_ROW_72_1701
*23302 TAP_TAPCELL_ROW_72_1702
*23303 TAP_TAPCELL_ROW_72_1703
*23304 TAP_TAPCELL_ROW_72_1704
*23305 TAP_TAPCELL_ROW_72_1705
*23306 TAP_TAPCELL_ROW_72_1706
*23307 TAP_TAPCELL_ROW_72_1707
*23308 TAP_TAPCELL_ROW_72_1708
*23309 TAP_TAPCELL_ROW_72_1709
*23310 TAP_TAPCELL_ROW_72_1710
*23311 TAP_TAPCELL_ROW_72_1711
*23312 TAP_TAPCELL_ROW_72_1712
*23313 TAP_TAPCELL_ROW_72_1713
*23314 TAP_TAPCELL_ROW_72_1714
*23315 TAP_TAPCELL_ROW_72_1715
*23316 TAP_TAPCELL_ROW_72_1716
*23317 TAP_TAPCELL_ROW_72_1717
*23318 TAP_TAPCELL_ROW_72_1718
*23319 TAP_TAPCELL_ROW_73_1719
*23320 TAP_TAPCELL_ROW_73_1720
*23321 TAP_TAPCELL_ROW_73_1721
*23322 TAP_TAPCELL_ROW_73_1722
*23323 TAP_TAPCELL_ROW_73_1723
*23324 TAP_TAPCELL_ROW_73_1724
*23325 TAP_TAPCELL_ROW_73_1725
*23326 TAP_TAPCELL_ROW_73_1726
*23327 TAP_TAPCELL_ROW_73_1727
*23328 TAP_TAPCELL_ROW_73_1728
*23329 TAP_TAPCELL_ROW_73_1729
*23330 TAP_TAPCELL_ROW_73_1730
*23331 TAP_TAPCELL_ROW_73_1731
*23332 TAP_TAPCELL_ROW_73_1732
*23333 TAP_TAPCELL_ROW_73_1733
*23334 TAP_TAPCELL_ROW_73_1734
*23335 TAP_TAPCELL_ROW_73_1735
*23336 TAP_TAPCELL_ROW_73_1736
*23337 TAP_TAPCELL_ROW_74_1737
*23338 TAP_TAPCELL_ROW_74_1738
*23339 TAP_TAPCELL_ROW_74_1739
*23340 TAP_TAPCELL_ROW_74_1740
*23341 TAP_TAPCELL_ROW_74_1741
*23342 TAP_TAPCELL_ROW_74_1742
*23343 TAP_TAPCELL_ROW_74_1743
*23344 TAP_TAPCELL_ROW_74_1744
*23345 TAP_TAPCELL_ROW_74_1745
*23346 TAP_TAPCELL_ROW_74_1746
*23347 TAP_TAPCELL_ROW_74_1747
*23348 TAP_TAPCELL_ROW_74_1748
*23349 TAP_TAPCELL_ROW_74_1749
*23350 TAP_TAPCELL_ROW_74_1750
*23351 TAP_TAPCELL_ROW_74_1751
*23352 TAP_TAPCELL_ROW_74_1752
*23353 TAP_TAPCELL_ROW_74_1753
*23354 TAP_TAPCELL_ROW_74_1754
*23355 TAP_TAPCELL_ROW_74_1755
*23356 TAP_TAPCELL_ROW_75_1756
*23357 TAP_TAPCELL_ROW_75_1757
*23358 TAP_TAPCELL_ROW_75_1758
*23359 TAP_TAPCELL_ROW_75_1759
*23360 TAP_TAPCELL_ROW_75_1760
*23361 TAP_TAPCELL_ROW_75_1761
*23362 TAP_TAPCELL_ROW_75_1762
*23363 TAP_TAPCELL_ROW_75_1763
*23364 TAP_TAPCELL_ROW_75_1764
*23365 TAP_TAPCELL_ROW_75_1765
*23366 TAP_TAPCELL_ROW_75_1766
*23367 TAP_TAPCELL_ROW_75_1767
*23368 TAP_TAPCELL_ROW_75_1768
*23369 TAP_TAPCELL_ROW_75_1769
*23370 TAP_TAPCELL_ROW_75_1770
*23371 TAP_TAPCELL_ROW_75_1771
*23372 TAP_TAPCELL_ROW_75_1772
*23373 TAP_TAPCELL_ROW_75_1773
*23374 TAP_TAPCELL_ROW_76_1774
*23375 TAP_TAPCELL_ROW_76_1775
*23376 TAP_TAPCELL_ROW_76_1776
*23377 TAP_TAPCELL_ROW_76_1777
*23378 TAP_TAPCELL_ROW_76_1778
*23379 TAP_TAPCELL_ROW_76_1779
*23380 TAP_TAPCELL_ROW_76_1780
*23381 TAP_TAPCELL_ROW_76_1781
*23382 TAP_TAPCELL_ROW_76_1782
*23383 TAP_TAPCELL_ROW_76_1783
*23384 TAP_TAPCELL_ROW_76_1784
*23385 TAP_TAPCELL_ROW_76_1785
*23386 TAP_TAPCELL_ROW_76_1786
*23387 TAP_TAPCELL_ROW_76_1787
*23388 TAP_TAPCELL_ROW_76_1788
*23389 TAP_TAPCELL_ROW_76_1789
*23390 TAP_TAPCELL_ROW_76_1790
*23391 TAP_TAPCELL_ROW_76_1791
*23392 TAP_TAPCELL_ROW_76_1792
*23393 TAP_TAPCELL_ROW_77_1793
*23394 TAP_TAPCELL_ROW_77_1794
*23395 TAP_TAPCELL_ROW_77_1795
*23396 TAP_TAPCELL_ROW_77_1796
*23397 TAP_TAPCELL_ROW_77_1797
*23398 TAP_TAPCELL_ROW_77_1798
*23399 TAP_TAPCELL_ROW_77_1799
*23400 TAP_TAPCELL_ROW_77_1800
*23401 TAP_TAPCELL_ROW_77_1801
*23402 TAP_TAPCELL_ROW_77_1802
*23403 TAP_TAPCELL_ROW_77_1803
*23404 TAP_TAPCELL_ROW_77_1804
*23405 TAP_TAPCELL_ROW_77_1805
*23406 TAP_TAPCELL_ROW_77_1806
*23407 TAP_TAPCELL_ROW_77_1807
*23408 TAP_TAPCELL_ROW_77_1808
*23409 TAP_TAPCELL_ROW_77_1809
*23410 TAP_TAPCELL_ROW_77_1810
*23411 TAP_TAPCELL_ROW_78_1811
*23412 TAP_TAPCELL_ROW_78_1812
*23413 TAP_TAPCELL_ROW_78_1813
*23414 TAP_TAPCELL_ROW_78_1814
*23415 TAP_TAPCELL_ROW_78_1815
*23416 TAP_TAPCELL_ROW_78_1816
*23417 TAP_TAPCELL_ROW_78_1817
*23418 TAP_TAPCELL_ROW_78_1818
*23419 TAP_TAPCELL_ROW_78_1819
*23420 TAP_TAPCELL_ROW_78_1820
*23421 TAP_TAPCELL_ROW_78_1821
*23422 TAP_TAPCELL_ROW_78_1822
*23423 TAP_TAPCELL_ROW_78_1823
*23424 TAP_TAPCELL_ROW_78_1824
*23425 TAP_TAPCELL_ROW_78_1825
*23426 TAP_TAPCELL_ROW_78_1826
*23427 TAP_TAPCELL_ROW_78_1827
*23428 TAP_TAPCELL_ROW_78_1828
*23429 TAP_TAPCELL_ROW_78_1829
*23430 TAP_TAPCELL_ROW_79_1830
*23431 TAP_TAPCELL_ROW_79_1831
*23432 TAP_TAPCELL_ROW_79_1832
*23433 TAP_TAPCELL_ROW_79_1833
*23434 TAP_TAPCELL_ROW_79_1834
*23435 TAP_TAPCELL_ROW_79_1835
*23436 TAP_TAPCELL_ROW_79_1836
*23437 TAP_TAPCELL_ROW_79_1837
*23438 TAP_TAPCELL_ROW_79_1838
*23439 TAP_TAPCELL_ROW_79_1839
*23440 TAP_TAPCELL_ROW_79_1840
*23441 TAP_TAPCELL_ROW_79_1841
*23442 TAP_TAPCELL_ROW_79_1842
*23443 TAP_TAPCELL_ROW_79_1843
*23444 TAP_TAPCELL_ROW_79_1844
*23445 TAP_TAPCELL_ROW_79_1845
*23446 TAP_TAPCELL_ROW_79_1846
*23447 TAP_TAPCELL_ROW_79_1847
*23448 TAP_TAPCELL_ROW_7_498
*23449 TAP_TAPCELL_ROW_7_499
*23450 TAP_TAPCELL_ROW_7_500
*23451 TAP_TAPCELL_ROW_7_501
*23452 TAP_TAPCELL_ROW_7_502
*23453 TAP_TAPCELL_ROW_7_503
*23454 TAP_TAPCELL_ROW_7_504
*23455 TAP_TAPCELL_ROW_7_505
*23456 TAP_TAPCELL_ROW_7_506
*23457 TAP_TAPCELL_ROW_7_507
*23458 TAP_TAPCELL_ROW_7_508
*23459 TAP_TAPCELL_ROW_7_509
*23460 TAP_TAPCELL_ROW_7_510
*23461 TAP_TAPCELL_ROW_7_511
*23462 TAP_TAPCELL_ROW_7_512
*23463 TAP_TAPCELL_ROW_7_513
*23464 TAP_TAPCELL_ROW_7_514
*23465 TAP_TAPCELL_ROW_7_515
*23466 TAP_TAPCELL_ROW_80_1848
*23467 TAP_TAPCELL_ROW_80_1849
*23468 TAP_TAPCELL_ROW_80_1850
*23469 TAP_TAPCELL_ROW_80_1851
*23470 TAP_TAPCELL_ROW_80_1852
*23471 TAP_TAPCELL_ROW_80_1853
*23472 TAP_TAPCELL_ROW_80_1854
*23473 TAP_TAPCELL_ROW_80_1855
*23474 TAP_TAPCELL_ROW_80_1856
*23475 TAP_TAPCELL_ROW_80_1857
*23476 TAP_TAPCELL_ROW_80_1858
*23477 TAP_TAPCELL_ROW_80_1859
*23478 TAP_TAPCELL_ROW_80_1860
*23479 TAP_TAPCELL_ROW_80_1861
*23480 TAP_TAPCELL_ROW_80_1862
*23481 TAP_TAPCELL_ROW_80_1863
*23482 TAP_TAPCELL_ROW_80_1864
*23483 TAP_TAPCELL_ROW_80_1865
*23484 TAP_TAPCELL_ROW_80_1866
*23485 TAP_TAPCELL_ROW_81_1867
*23486 TAP_TAPCELL_ROW_81_1868
*23487 TAP_TAPCELL_ROW_81_1869
*23488 TAP_TAPCELL_ROW_81_1870
*23489 TAP_TAPCELL_ROW_81_1871
*23490 TAP_TAPCELL_ROW_81_1872
*23491 TAP_TAPCELL_ROW_81_1873
*23492 TAP_TAPCELL_ROW_81_1874
*23493 TAP_TAPCELL_ROW_81_1875
*23494 TAP_TAPCELL_ROW_81_1876
*23495 TAP_TAPCELL_ROW_81_1877
*23496 TAP_TAPCELL_ROW_81_1878
*23497 TAP_TAPCELL_ROW_81_1879
*23498 TAP_TAPCELL_ROW_81_1880
*23499 TAP_TAPCELL_ROW_81_1881
*23500 TAP_TAPCELL_ROW_81_1882
*23501 TAP_TAPCELL_ROW_81_1883
*23502 TAP_TAPCELL_ROW_81_1884
*23503 TAP_TAPCELL_ROW_82_1885
*23504 TAP_TAPCELL_ROW_82_1886
*23505 TAP_TAPCELL_ROW_82_1887
*23506 TAP_TAPCELL_ROW_82_1888
*23507 TAP_TAPCELL_ROW_82_1889
*23508 TAP_TAPCELL_ROW_82_1890
*23509 TAP_TAPCELL_ROW_82_1891
*23510 TAP_TAPCELL_ROW_82_1892
*23511 TAP_TAPCELL_ROW_82_1893
*23512 TAP_TAPCELL_ROW_82_1894
*23513 TAP_TAPCELL_ROW_82_1895
*23514 TAP_TAPCELL_ROW_82_1896
*23515 TAP_TAPCELL_ROW_82_1897
*23516 TAP_TAPCELL_ROW_82_1898
*23517 TAP_TAPCELL_ROW_82_1899
*23518 TAP_TAPCELL_ROW_82_1900
*23519 TAP_TAPCELL_ROW_82_1901
*23520 TAP_TAPCELL_ROW_82_1902
*23521 TAP_TAPCELL_ROW_82_1903
*23522 TAP_TAPCELL_ROW_83_1904
*23523 TAP_TAPCELL_ROW_83_1905
*23524 TAP_TAPCELL_ROW_83_1906
*23525 TAP_TAPCELL_ROW_83_1907
*23526 TAP_TAPCELL_ROW_83_1908
*23527 TAP_TAPCELL_ROW_83_1909
*23528 TAP_TAPCELL_ROW_83_1910
*23529 TAP_TAPCELL_ROW_83_1911
*23530 TAP_TAPCELL_ROW_83_1912
*23531 TAP_TAPCELL_ROW_83_1913
*23532 TAP_TAPCELL_ROW_83_1914
*23533 TAP_TAPCELL_ROW_83_1915
*23534 TAP_TAPCELL_ROW_83_1916
*23535 TAP_TAPCELL_ROW_83_1917
*23536 TAP_TAPCELL_ROW_83_1918
*23537 TAP_TAPCELL_ROW_83_1919
*23538 TAP_TAPCELL_ROW_83_1920
*23539 TAP_TAPCELL_ROW_83_1921
*23540 TAP_TAPCELL_ROW_84_1922
*23541 TAP_TAPCELL_ROW_84_1923
*23542 TAP_TAPCELL_ROW_84_1924
*23543 TAP_TAPCELL_ROW_84_1925
*23544 TAP_TAPCELL_ROW_84_1926
*23545 TAP_TAPCELL_ROW_84_1927
*23546 TAP_TAPCELL_ROW_84_1928
*23547 TAP_TAPCELL_ROW_84_1929
*23548 TAP_TAPCELL_ROW_84_1930
*23549 TAP_TAPCELL_ROW_84_1931
*23550 TAP_TAPCELL_ROW_84_1932
*23551 TAP_TAPCELL_ROW_84_1933
*23552 TAP_TAPCELL_ROW_84_1934
*23553 TAP_TAPCELL_ROW_84_1935
*23554 TAP_TAPCELL_ROW_84_1936
*23555 TAP_TAPCELL_ROW_84_1937
*23556 TAP_TAPCELL_ROW_84_1938
*23557 TAP_TAPCELL_ROW_84_1939
*23558 TAP_TAPCELL_ROW_84_1940
*23559 TAP_TAPCELL_ROW_85_1941
*23560 TAP_TAPCELL_ROW_85_1942
*23561 TAP_TAPCELL_ROW_85_1943
*23562 TAP_TAPCELL_ROW_85_1944
*23563 TAP_TAPCELL_ROW_85_1945
*23564 TAP_TAPCELL_ROW_85_1946
*23565 TAP_TAPCELL_ROW_85_1947
*23566 TAP_TAPCELL_ROW_85_1948
*23567 TAP_TAPCELL_ROW_85_1949
*23568 TAP_TAPCELL_ROW_85_1950
*23569 TAP_TAPCELL_ROW_85_1951
*23570 TAP_TAPCELL_ROW_85_1952
*23571 TAP_TAPCELL_ROW_85_1953
*23572 TAP_TAPCELL_ROW_85_1954
*23573 TAP_TAPCELL_ROW_85_1955
*23574 TAP_TAPCELL_ROW_85_1956
*23575 TAP_TAPCELL_ROW_85_1957
*23576 TAP_TAPCELL_ROW_85_1958
*23577 TAP_TAPCELL_ROW_86_1959
*23578 TAP_TAPCELL_ROW_86_1960
*23579 TAP_TAPCELL_ROW_86_1961
*23580 TAP_TAPCELL_ROW_86_1962
*23581 TAP_TAPCELL_ROW_86_1963
*23582 TAP_TAPCELL_ROW_86_1964
*23583 TAP_TAPCELL_ROW_86_1965
*23584 TAP_TAPCELL_ROW_86_1966
*23585 TAP_TAPCELL_ROW_86_1967
*23586 TAP_TAPCELL_ROW_86_1968
*23587 TAP_TAPCELL_ROW_86_1969
*23588 TAP_TAPCELL_ROW_86_1970
*23589 TAP_TAPCELL_ROW_86_1971
*23590 TAP_TAPCELL_ROW_86_1972
*23591 TAP_TAPCELL_ROW_86_1973
*23592 TAP_TAPCELL_ROW_86_1974
*23593 TAP_TAPCELL_ROW_86_1975
*23594 TAP_TAPCELL_ROW_86_1976
*23595 TAP_TAPCELL_ROW_86_1977
*23596 TAP_TAPCELL_ROW_87_1978
*23597 TAP_TAPCELL_ROW_87_1979
*23598 TAP_TAPCELL_ROW_87_1980
*23599 TAP_TAPCELL_ROW_87_1981
*23600 TAP_TAPCELL_ROW_87_1982
*23601 TAP_TAPCELL_ROW_87_1983
*23602 TAP_TAPCELL_ROW_87_1984
*23603 TAP_TAPCELL_ROW_87_1985
*23604 TAP_TAPCELL_ROW_87_1986
*23605 TAP_TAPCELL_ROW_87_1987
*23606 TAP_TAPCELL_ROW_87_1988
*23607 TAP_TAPCELL_ROW_87_1989
*23608 TAP_TAPCELL_ROW_87_1990
*23609 TAP_TAPCELL_ROW_87_1991
*23610 TAP_TAPCELL_ROW_87_1992
*23611 TAP_TAPCELL_ROW_87_1993
*23612 TAP_TAPCELL_ROW_87_1994
*23613 TAP_TAPCELL_ROW_87_1995
*23614 TAP_TAPCELL_ROW_88_1996
*23615 TAP_TAPCELL_ROW_88_1997
*23616 TAP_TAPCELL_ROW_88_1998
*23617 TAP_TAPCELL_ROW_88_1999
*23618 TAP_TAPCELL_ROW_88_2000
*23619 TAP_TAPCELL_ROW_88_2001
*23620 TAP_TAPCELL_ROW_88_2002
*23621 TAP_TAPCELL_ROW_88_2003
*23622 TAP_TAPCELL_ROW_88_2004
*23623 TAP_TAPCELL_ROW_88_2005
*23624 TAP_TAPCELL_ROW_88_2006
*23625 TAP_TAPCELL_ROW_88_2007
*23626 TAP_TAPCELL_ROW_88_2008
*23627 TAP_TAPCELL_ROW_88_2009
*23628 TAP_TAPCELL_ROW_88_2010
*23629 TAP_TAPCELL_ROW_88_2011
*23630 TAP_TAPCELL_ROW_88_2012
*23631 TAP_TAPCELL_ROW_88_2013
*23632 TAP_TAPCELL_ROW_88_2014
*23633 TAP_TAPCELL_ROW_89_2015
*23634 TAP_TAPCELL_ROW_89_2016
*23635 TAP_TAPCELL_ROW_89_2017
*23636 TAP_TAPCELL_ROW_89_2018
*23637 TAP_TAPCELL_ROW_89_2019
*23638 TAP_TAPCELL_ROW_89_2020
*23639 TAP_TAPCELL_ROW_89_2021
*23640 TAP_TAPCELL_ROW_89_2022
*23641 TAP_TAPCELL_ROW_89_2023
*23642 TAP_TAPCELL_ROW_89_2024
*23643 TAP_TAPCELL_ROW_89_2025
*23644 TAP_TAPCELL_ROW_89_2026
*23645 TAP_TAPCELL_ROW_89_2027
*23646 TAP_TAPCELL_ROW_89_2028
*23647 TAP_TAPCELL_ROW_89_2029
*23648 TAP_TAPCELL_ROW_89_2030
*23649 TAP_TAPCELL_ROW_89_2031
*23650 TAP_TAPCELL_ROW_89_2032
*23651 TAP_TAPCELL_ROW_8_516
*23652 TAP_TAPCELL_ROW_8_517
*23653 TAP_TAPCELL_ROW_8_518
*23654 TAP_TAPCELL_ROW_8_519
*23655 TAP_TAPCELL_ROW_8_520
*23656 TAP_TAPCELL_ROW_8_521
*23657 TAP_TAPCELL_ROW_8_522
*23658 TAP_TAPCELL_ROW_8_523
*23659 TAP_TAPCELL_ROW_8_524
*23660 TAP_TAPCELL_ROW_8_525
*23661 TAP_TAPCELL_ROW_8_526
*23662 TAP_TAPCELL_ROW_8_527
*23663 TAP_TAPCELL_ROW_8_528
*23664 TAP_TAPCELL_ROW_8_529
*23665 TAP_TAPCELL_ROW_8_530
*23666 TAP_TAPCELL_ROW_8_531
*23667 TAP_TAPCELL_ROW_8_532
*23668 TAP_TAPCELL_ROW_8_533
*23669 TAP_TAPCELL_ROW_8_534
*23670 TAP_TAPCELL_ROW_90_2033
*23671 TAP_TAPCELL_ROW_90_2034
*23672 TAP_TAPCELL_ROW_90_2035
*23673 TAP_TAPCELL_ROW_90_2036
*23674 TAP_TAPCELL_ROW_90_2037
*23675 TAP_TAPCELL_ROW_90_2038
*23676 TAP_TAPCELL_ROW_90_2039
*23677 TAP_TAPCELL_ROW_90_2040
*23678 TAP_TAPCELL_ROW_90_2041
*23679 TAP_TAPCELL_ROW_90_2042
*23680 TAP_TAPCELL_ROW_90_2043
*23681 TAP_TAPCELL_ROW_90_2044
*23682 TAP_TAPCELL_ROW_90_2045
*23683 TAP_TAPCELL_ROW_90_2046
*23684 TAP_TAPCELL_ROW_90_2047
*23685 TAP_TAPCELL_ROW_90_2048
*23686 TAP_TAPCELL_ROW_90_2049
*23687 TAP_TAPCELL_ROW_90_2050
*23688 TAP_TAPCELL_ROW_90_2051
*23689 TAP_TAPCELL_ROW_91_2052
*23690 TAP_TAPCELL_ROW_91_2053
*23691 TAP_TAPCELL_ROW_91_2054
*23692 TAP_TAPCELL_ROW_91_2055
*23693 TAP_TAPCELL_ROW_91_2056
*23694 TAP_TAPCELL_ROW_91_2057
*23695 TAP_TAPCELL_ROW_91_2058
*23696 TAP_TAPCELL_ROW_91_2059
*23697 TAP_TAPCELL_ROW_91_2060
*23698 TAP_TAPCELL_ROW_91_2061
*23699 TAP_TAPCELL_ROW_91_2062
*23700 TAP_TAPCELL_ROW_91_2063
*23701 TAP_TAPCELL_ROW_91_2064
*23702 TAP_TAPCELL_ROW_91_2065
*23703 TAP_TAPCELL_ROW_91_2066
*23704 TAP_TAPCELL_ROW_91_2067
*23705 TAP_TAPCELL_ROW_91_2068
*23706 TAP_TAPCELL_ROW_91_2069
*23707 TAP_TAPCELL_ROW_92_2070
*23708 TAP_TAPCELL_ROW_92_2071
*23709 TAP_TAPCELL_ROW_92_2072
*23710 TAP_TAPCELL_ROW_92_2073
*23711 TAP_TAPCELL_ROW_92_2074
*23712 TAP_TAPCELL_ROW_92_2075
*23713 TAP_TAPCELL_ROW_92_2076
*23714 TAP_TAPCELL_ROW_92_2077
*23715 TAP_TAPCELL_ROW_92_2078
*23716 TAP_TAPCELL_ROW_92_2079
*23717 TAP_TAPCELL_ROW_92_2080
*23718 TAP_TAPCELL_ROW_92_2081
*23719 TAP_TAPCELL_ROW_92_2082
*23720 TAP_TAPCELL_ROW_92_2083
*23721 TAP_TAPCELL_ROW_92_2084
*23722 TAP_TAPCELL_ROW_92_2085
*23723 TAP_TAPCELL_ROW_92_2086
*23724 TAP_TAPCELL_ROW_92_2087
*23725 TAP_TAPCELL_ROW_92_2088
*23726 TAP_TAPCELL_ROW_93_2089
*23727 TAP_TAPCELL_ROW_93_2090
*23728 TAP_TAPCELL_ROW_93_2091
*23729 TAP_TAPCELL_ROW_93_2092
*23730 TAP_TAPCELL_ROW_93_2093
*23731 TAP_TAPCELL_ROW_93_2094
*23732 TAP_TAPCELL_ROW_93_2095
*23733 TAP_TAPCELL_ROW_93_2096
*23734 TAP_TAPCELL_ROW_93_2097
*23735 TAP_TAPCELL_ROW_93_2098
*23736 TAP_TAPCELL_ROW_93_2099
*23737 TAP_TAPCELL_ROW_93_2100
*23738 TAP_TAPCELL_ROW_93_2101
*23739 TAP_TAPCELL_ROW_93_2102
*23740 TAP_TAPCELL_ROW_93_2103
*23741 TAP_TAPCELL_ROW_93_2104
*23742 TAP_TAPCELL_ROW_93_2105
*23743 TAP_TAPCELL_ROW_93_2106
*23744 TAP_TAPCELL_ROW_94_2107
*23745 TAP_TAPCELL_ROW_94_2108
*23746 TAP_TAPCELL_ROW_94_2109
*23747 TAP_TAPCELL_ROW_94_2110
*23748 TAP_TAPCELL_ROW_94_2111
*23749 TAP_TAPCELL_ROW_94_2112
*23750 TAP_TAPCELL_ROW_94_2113
*23751 TAP_TAPCELL_ROW_94_2114
*23752 TAP_TAPCELL_ROW_94_2115
*23753 TAP_TAPCELL_ROW_94_2116
*23754 TAP_TAPCELL_ROW_94_2117
*23755 TAP_TAPCELL_ROW_94_2118
*23756 TAP_TAPCELL_ROW_94_2119
*23757 TAP_TAPCELL_ROW_94_2120
*23758 TAP_TAPCELL_ROW_94_2121
*23759 TAP_TAPCELL_ROW_94_2122
*23760 TAP_TAPCELL_ROW_94_2123
*23761 TAP_TAPCELL_ROW_94_2124
*23762 TAP_TAPCELL_ROW_94_2125
*23763 TAP_TAPCELL_ROW_95_2126
*23764 TAP_TAPCELL_ROW_95_2127
*23765 TAP_TAPCELL_ROW_95_2128
*23766 TAP_TAPCELL_ROW_95_2129
*23767 TAP_TAPCELL_ROW_95_2130
*23768 TAP_TAPCELL_ROW_95_2131
*23769 TAP_TAPCELL_ROW_95_2132
*23770 TAP_TAPCELL_ROW_95_2133
*23771 TAP_TAPCELL_ROW_95_2134
*23772 TAP_TAPCELL_ROW_95_2135
*23773 TAP_TAPCELL_ROW_95_2136
*23774 TAP_TAPCELL_ROW_95_2137
*23775 TAP_TAPCELL_ROW_95_2138
*23776 TAP_TAPCELL_ROW_95_2139
*23777 TAP_TAPCELL_ROW_95_2140
*23778 TAP_TAPCELL_ROW_95_2141
*23779 TAP_TAPCELL_ROW_95_2142
*23780 TAP_TAPCELL_ROW_95_2143
*23781 TAP_TAPCELL_ROW_96_2144
*23782 TAP_TAPCELL_ROW_96_2145
*23783 TAP_TAPCELL_ROW_96_2146
*23784 TAP_TAPCELL_ROW_96_2147
*23785 TAP_TAPCELL_ROW_96_2148
*23786 TAP_TAPCELL_ROW_96_2149
*23787 TAP_TAPCELL_ROW_96_2150
*23788 TAP_TAPCELL_ROW_96_2151
*23789 TAP_TAPCELL_ROW_96_2152
*23790 TAP_TAPCELL_ROW_96_2153
*23791 TAP_TAPCELL_ROW_96_2154
*23792 TAP_TAPCELL_ROW_96_2155
*23793 TAP_TAPCELL_ROW_96_2156
*23794 TAP_TAPCELL_ROW_96_2157
*23795 TAP_TAPCELL_ROW_96_2158
*23796 TAP_TAPCELL_ROW_96_2159
*23797 TAP_TAPCELL_ROW_96_2160
*23798 TAP_TAPCELL_ROW_96_2161
*23799 TAP_TAPCELL_ROW_96_2162
*23800 TAP_TAPCELL_ROW_97_2163
*23801 TAP_TAPCELL_ROW_97_2164
*23802 TAP_TAPCELL_ROW_97_2165
*23803 TAP_TAPCELL_ROW_97_2166
*23804 TAP_TAPCELL_ROW_97_2167
*23805 TAP_TAPCELL_ROW_97_2168
*23806 TAP_TAPCELL_ROW_97_2169
*23807 TAP_TAPCELL_ROW_97_2170
*23808 TAP_TAPCELL_ROW_97_2171
*23809 TAP_TAPCELL_ROW_97_2172
*23810 TAP_TAPCELL_ROW_97_2173
*23811 TAP_TAPCELL_ROW_97_2174
*23812 TAP_TAPCELL_ROW_97_2175
*23813 TAP_TAPCELL_ROW_97_2176
*23814 TAP_TAPCELL_ROW_97_2177
*23815 TAP_TAPCELL_ROW_97_2178
*23816 TAP_TAPCELL_ROW_97_2179
*23817 TAP_TAPCELL_ROW_97_2180
*23818 TAP_TAPCELL_ROW_98_2181
*23819 TAP_TAPCELL_ROW_98_2182
*23820 TAP_TAPCELL_ROW_98_2183
*23821 TAP_TAPCELL_ROW_98_2184
*23822 TAP_TAPCELL_ROW_98_2185
*23823 TAP_TAPCELL_ROW_98_2186
*23824 TAP_TAPCELL_ROW_98_2187
*23825 TAP_TAPCELL_ROW_98_2188
*23826 TAP_TAPCELL_ROW_98_2189
*23827 TAP_TAPCELL_ROW_98_2190
*23828 TAP_TAPCELL_ROW_98_2191
*23829 TAP_TAPCELL_ROW_98_2192
*23830 TAP_TAPCELL_ROW_98_2193
*23831 TAP_TAPCELL_ROW_98_2194
*23832 TAP_TAPCELL_ROW_98_2195
*23833 TAP_TAPCELL_ROW_98_2196
*23834 TAP_TAPCELL_ROW_98_2197
*23835 TAP_TAPCELL_ROW_98_2198
*23836 TAP_TAPCELL_ROW_98_2199
*23837 TAP_TAPCELL_ROW_99_2200
*23838 TAP_TAPCELL_ROW_99_2201
*23839 TAP_TAPCELL_ROW_99_2202
*23840 TAP_TAPCELL_ROW_99_2203
*23841 TAP_TAPCELL_ROW_99_2204
*23842 TAP_TAPCELL_ROW_99_2205
*23843 TAP_TAPCELL_ROW_99_2206
*23844 TAP_TAPCELL_ROW_99_2207
*23845 TAP_TAPCELL_ROW_99_2208
*23846 TAP_TAPCELL_ROW_99_2209
*23847 TAP_TAPCELL_ROW_99_2210
*23848 TAP_TAPCELL_ROW_99_2211
*23849 TAP_TAPCELL_ROW_99_2212
*23850 TAP_TAPCELL_ROW_99_2213
*23851 TAP_TAPCELL_ROW_99_2214
*23852 TAP_TAPCELL_ROW_99_2215
*23853 TAP_TAPCELL_ROW_99_2216
*23854 TAP_TAPCELL_ROW_99_2217
*23855 TAP_TAPCELL_ROW_9_535
*23856 TAP_TAPCELL_ROW_9_536
*23857 TAP_TAPCELL_ROW_9_537
*23858 TAP_TAPCELL_ROW_9_538
*23859 TAP_TAPCELL_ROW_9_539
*23860 TAP_TAPCELL_ROW_9_540
*23861 TAP_TAPCELL_ROW_9_541
*23862 TAP_TAPCELL_ROW_9_542
*23863 TAP_TAPCELL_ROW_9_543
*23864 TAP_TAPCELL_ROW_9_544
*23865 TAP_TAPCELL_ROW_9_545
*23866 TAP_TAPCELL_ROW_9_546
*23867 TAP_TAPCELL_ROW_9_547
*23868 TAP_TAPCELL_ROW_9_548
*23869 TAP_TAPCELL_ROW_9_549
*23870 TAP_TAPCELL_ROW_9_550
*23871 TAP_TAPCELL_ROW_9_551
*23872 TAP_TAPCELL_ROW_9_552
*23873 _268_
*23874 _269_
*23875 _270_
*23876 _271_
*23877 _272_
*23878 _273_
*23879 _274_
*23880 _275_
*23881 _276_
*23882 _277_
*23883 _278_
*23884 _279_
*23885 _280_
*23886 _281_
*23887 _282_
*23888 _283_
*23889 _284_
*23890 _285_
*23891 _286_
*23892 _287_
*23893 _288_
*23894 _289_
*23895 _290_
*23896 _291_
*23897 _292_
*23898 _293_
*23899 _294_
*23900 _295_
*23901 _296_
*23902 _297_
*23903 _298_
*23904 _299_
*23905 _300_
*23906 _301_
*23907 _302_
*23908 _303_
*23909 _304_
*23910 _305_
*23911 _306_
*23912 _307_
*23913 _308_
*23914 _309_
*23915 _310_
*23916 _311_
*23917 _312_
*23918 _313_
*23919 _314_
*23920 _315_
*23921 _316_
*23922 _317_
*23923 _318_
*23924 _319_
*23925 _320_
*23926 _321_
*23927 _322_
*23928 _323_
*23929 _324_
*23930 _325_
*23931 _326_
*23932 _327_
*23933 _328_
*23934 _329_
*23935 _330_
*23936 _331_
*23937 _332_
*23938 _333_
*23939 _334_
*23940 _335_
*23941 _336_
*23942 _337_
*23943 _338_
*23944 _339_
*23945 _340_
*23946 _341_
*23947 _342_
*23948 _343_
*23949 _344_
*23950 _345_
*23951 _346_
*23952 _347_
*23953 _348_
*23954 _349_
*23955 _350_
*23956 _351_
*23957 _352_
*23958 _353_
*23959 _354_
*23960 _355_
*23961 _356_
*23962 _357_
*23963 _358_
*23964 _359_
*23965 _360_
*23966 _361_
*23967 _362_
*23968 _363_
*23969 _364_
*23970 _365_
*23971 _366_
*23972 _367_
*23973 _368_
*23974 _369_
*23975 _370_
*23976 _371_
*23977 _372_
*23978 _373_
*23979 _374_
*23980 _375_
*23981 _376_
*23982 _377_
*23983 _378_
*23984 _379_
*23985 _380_
*23986 _381_
*23987 _382_
*23988 _383_
*23989 _384_
*23990 _385_
*23991 _386_
*23992 _387_
*23993 _388_
*23994 _389_
*23995 _390_
*23996 _391_
*23997 _392_
*23998 _393_
*23999 _394_
*24000 _395_
*24001 _396_
*24002 _397_
*24003 _398_
*24004 _399_
*24005 _400_
*24006 _401_
*24007 _402_
*24008 _403_
*24009 _404_
*24010 _405_
*24011 _406_
*24012 _407_
*24013 _408_
*24014 _409_
*24015 _410_
*24016 _411_
*24017 _412_
*24018 _413_
*24019 _414_
*24020 _415_
*24021 _416_
*24022 _417_
*24023 _418_
*24024 _419_
*24025 _420_
*24026 _421_
*24027 _422_
*24028 _423_
*24029 _424_
*24030 _425_
*24031 _426_
*24032 _427_
*24033 _428_
*24034 _429_
*24035 _430_
*24036 _431_
*24037 _432_
*24038 _433_
*24039 _434_
*24040 _435_
*24041 _436_
*24042 _437_
*24043 _438_
*24044 _439_
*24045 _440_
*24046 _441_
*24047 _442_
*24048 _443_
*24049 _444_
*24050 _445_
*24051 _446_
*24052 _447_
*24053 _448_
*24054 _449_
*24055 _450_
*24056 _451_
*24057 _452_
*24058 _453_
*24059 _454_
*24060 _455_
*24061 _456_
*24062 _457_
*24063 _458_
*24064 _459_
*24065 _460_
*24066 _461_
*24067 _462_
*24068 _463_
*24069 _464_
*24070 _465_
*24071 _466_
*24072 _467_
*24073 _468_
*24074 _469_
*24075 _470_
*24076 _471_
*24077 _472_
*24078 _473_
*24079 _474_
*24080 _475_
*24081 _476_
*24082 _477_
*24083 _478_
*24084 _479_
*24085 _480_
*24086 _481_
*24087 _482_
*24088 _483_
*24089 _484_
*24090 _485_
*24091 _486_
*24092 _487_
*24093 _488_
*24094 _489_
*24095 _490_
*24096 _491_
*24097 _492_
*24098 _493_
*24099 _494_
*24100 _495_
*24101 _496_
*24102 _497_
*24103 _498_
*24104 _499_
*24105 _500_
*24106 _501_
*24107 _502_
*24108 _503_
*24109 _504_
*24110 _505_
*24111 _506_
*24112 _507_
*24113 _508_
*24114 _509_
*24115 _510_
*24116 _511_
*24117 _512_
*24118 _513_
*24119 _514_
*24120 _515_
*24121 _516_
*24122 _517_
*24123 _518_
*24124 _519_
*24125 _520_
*24126 _521_
*24127 _522_
*24128 _523_
*24129 _524_
*24130 _525_
*24131 _526_
*24132 _527_
*24133 _528_
*24134 _529_
*24135 _530_
*24136 _531_
*24137 _532_
*24138 _533_
*24139 _534_
*24140 _535_
*24141 _536_
*24142 _537_
*24143 _538_
*24144 _539_
*24145 _540_
*24146 _541_
*24147 _542_
*24148 _543_
*24149 _544_
*24150 _545_
*24151 _546_
*24152 _547_
*24153 _547__41
*24154 _548_
*24155 _549_
*24156 _550_
*24157 _551_
*24158 _552_
*24159 _553_
*24160 _554_
*24161 _555_
*24162 _556_
*24163 _557_
*24164 _558_
*24165 _559_
*24166 _560_
*24167 _561_
*24168 _562_
*24169 _563_
*24170 _564_
*24171 _565_
*24172 _566_
*24173 _567_
*24174 _568_
*24175 _569_
*24176 _570_
*24177 _571_
*24178 _572_
*24179 _573_
*24180 _574_
*24181 _575_
*24182 _576_
*24183 _577_
*24184 _578_
*24185 _579_
*24186 _580_
*24187 _581_
*24188 _582_
*24189 _583_
*24190 _584_
*24191 _585_
*24192 _586_
*24193 _587_
*24194 _588_
*24195 _589_
*24196 _590_
*24197 _591_
*24198 _592_
*24199 _593_
*24200 _594_
*24201 _595_
*24202 _596_
*24203 _597_
*24204 _597__40
*24205 _611_
*24206 _612_
*24207 clkbuf_0_wb_clk_i
*24208 clkbuf_2_0__f_wb_clk_i
*24209 clkbuf_2_1__f_wb_clk_i
*24210 clkbuf_2_2__f_wb_clk_i
*24211 clkbuf_2_3__f_wb_clk_i
*24212 clkload0
*24213 clkload1
*24214 clkload2
*24215 fanout15
*24216 fanout16
*24217 fanout17
*24218 fanout18
*24219 fanout19
*24220 fanout20
*24221 fanout21
*24222 fanout22
*24223 fanout23
*24224 fanout24
*24225 fanout25
*24226 fanout26
*24227 fanout27
*24228 fanout28
*24229 hold1
*24230 hold10
*24231 hold11
*24232 hold12
*24233 hold13
*24234 hold14
*24235 hold15
*24236 hold16
*24237 hold17
*24238 hold18
*24239 hold19
*24240 hold2
*24241 hold20
*24242 hold21
*24243 hold22
*24244 hold23
*24245 hold24
*24246 hold25
*24247 hold26
*24248 hold27
*24249 hold28
*24250 hold29
*24251 hold3
*24252 hold30
*24253 hold31
*24254 hold32
*24255 hold33
*24256 hold34
*24257 hold35
*24258 hold36
*24259 hold37
*24260 hold38
*24261 hold39
*24262 hold4
*24263 hold40
*24264 hold41
*24265 hold42
*24266 hold43
*24267 hold44
*24268 hold45
*24269 hold46
*24270 hold47
*24271 hold48
*24272 hold49
*24273 hold5
*24274 hold50
*24275 hold51
*24276 hold52
*24277 hold53
*24278 hold54
*24279 hold55
*24280 hold56
*24281 hold57
*24282 hold58
*24283 hold59
*24284 hold6
*24285 hold60
*24286 hold61
*24287 hold62
*24288 hold63
*24289 hold64
*24290 hold65
*24291 hold66
*24292 hold67
*24293 hold68
*24294 hold69
*24295 hold7
*24296 hold70
*24297 hold71
*24298 hold72
*24299 hold73
*24300 hold74
*24301 hold75
*24302 hold76
*24303 hold77
*24304 hold78
*24305 hold79
*24306 hold8
*24307 hold80
*24308 hold81
*24309 hold82
*24310 hold83
*24311 hold84
*24312 hold85
*24313 hold86
*24314 hold87
*24315 hold88
*24316 hold89
*24317 hold9
*24318 hold90
*24319 input1
*24320 input2
*24321 input3
*24322 output10
*24323 output11
*24324 output12
*24325 output13
*24326 output14
*24327 output4
*24328 output5
*24329 output6
*24330 output7
*24331 output8
*24332 output9
*24333 user_proj_timer_29
*24334 user_proj_timer_30
*24335 user_proj_timer_31
*24336 user_proj_timer_32
*24337 user_proj_timer_33
*24338 user_proj_timer_34
*24339 user_proj_timer_35
*24340 user_proj_timer_36
*24341 user_proj_timer_37
*24342 user_proj_timer_38
*24343 user_proj_timer_39

*PORTS
io_in[0] I
io_in[10] I
io_in[1] I
io_in[2] I
io_in[3] I
io_in[4] I
io_in[5] I
io_in[6] I
io_in[7] I
io_in[8] I
io_in[9] I
io_oeb[0] O
io_oeb[10] O
io_oeb[1] O
io_oeb[2] O
io_oeb[3] O
io_oeb[4] O
io_oeb[5] O
io_oeb[6] O
io_oeb[7] O
io_oeb[8] O
io_oeb[9] O
io_out[0] O
io_out[10] O
io_out[1] O
io_out[2] O
io_out[3] O
io_out[4] O
io_out[5] O
io_out[6] O
io_out[7] O
io_out[8] O
io_out[9] O
wb_clk_i I
wb_rst_i I

*D_NET *1 0.000730756
*CONN
*P io_in[0] I
*I *24319:A I *D sky130_fd_sc_hd__dlymetal6s2s_1
*CAP
1 io_in[0] 0.000365378
2 *24319:A 0
3 *1:17 0.000365378
*RES
1 io_in[0] *1:17 28.2148 
2 *1:17 *24319:A 23 
*END

*D_NET *3 0.000749971
*CONN
*P io_in[1] I
*I *24320:A I *D sky130_fd_sc_hd__buf_1
*CAP
1 io_in[1] 0.000374986
2 *24320:A 0
3 *3:17 0.000374986
4 *3:17 *315:10 0
*RES
1 io_in[1] *3:17 28.2148 
2 *3:17 *24320:A 23 
*END

*D_NET *12 0.00076079
*CONN
*P io_oeb[0] O
*I *24333:LO O *D sky130_fd_sc_hd__conb_1
*CAP
1 io_oeb[0] 0.00012216
2 *24333:LO 0.000258235
3 *12:10 0.000380395
4 *12:10 *315:10 0
*RES
1 *24333:LO *12:10 42.0289 
2 *12:10 io_oeb[0] 8.4816 
*END

*D_NET *13 0.00076079
*CONN
*P io_oeb[10] O
*I *24343:LO O *D sky130_fd_sc_hd__conb_1
*CAP
1 io_oeb[10] 0.00012216
2 *24343:LO 0.000258235
3 *13:10 0.000380395
*RES
1 *24343:LO *13:10 42.0289 
2 *13:10 io_oeb[10] 8.4816 
*END

*D_NET *14 0.000730756
*CONN
*P io_oeb[1] O
*I *24334:LO O *D sky130_fd_sc_hd__conb_1
*CAP
1 io_oeb[1] 0.000112553
2 *24334:LO 0.000252826
3 *14:10 0.000365378
4 *14:10 *315:10 0
*RES
1 *24334:LO *14:10 42.7332 
2 *14:10 io_oeb[1] 8.4816 
*END

*D_NET *15 0.000741575
*CONN
*P io_oeb[2] O
*I *24335:LO O *D sky130_fd_sc_hd__conb_1
*CAP
1 io_oeb[2] 0.000112553
2 *24335:LO 0.000258235
3 *15:10 0.000370788
4 *15:10 *402:10 0
*RES
1 *24335:LO *15:10 42.0289 
2 *15:10 io_oeb[2] 8.4816 
*END

*D_NET *16 0.000749971
*CONN
*P io_oeb[3] O
*I *24336:LO O *D sky130_fd_sc_hd__conb_1
*CAP
1 io_oeb[3] 0.00012216
2 *24336:LO 0.000252826
3 *16:10 0.000374986
*RES
1 *24336:LO *16:10 42.7332 
2 *16:10 io_oeb[3] 8.4816 
*END

*D_NET *17 0.000741575
*CONN
*P io_oeb[4] O
*I *24337:LO O *D sky130_fd_sc_hd__conb_1
*CAP
1 io_oeb[4] 0.000112553
2 *24337:LO 0.000258235
3 *17:10 0.000370788
*RES
1 *24337:LO *17:10 42.0289 
2 *17:10 io_oeb[4] 8.4816 
*END

*D_NET *18 0.000749971
*CONN
*P io_oeb[5] O
*I *24338:LO O *D sky130_fd_sc_hd__conb_1
*CAP
1 io_oeb[5] 0.00012216
2 *24338:LO 0.000252826
3 *18:10 0.000374986
*RES
1 *24338:LO *18:10 42.7332 
2 *18:10 io_oeb[5] 8.4816 
*END

*D_NET *19 0.00060054
*CONN
*P io_oeb[6] O
*I *24339:LO O *D sky130_fd_sc_hd__conb_1
*CAP
1 io_oeb[6] 0.00030027
2 *24339:LO 0.00030027
3 io_oeb[6] *380:8 0
*RES
1 *24339:LO io_oeb[6] 48.4875 
*END

*D_NET *20 0.000686181
*CONN
*P io_oeb[7] O
*I *24340:LO O *D sky130_fd_sc_hd__conb_1
*CAP
1 io_oeb[7] 0.00034309
2 *24340:LO 0.00034309
3 io_oeb[7] *380:8 0
*RES
1 *24340:LO io_oeb[7] 49.1918 
*END

*D_NET *21 0.00060054
*CONN
*P io_oeb[8] O
*I *24341:LO O *D sky130_fd_sc_hd__conb_1
*CAP
1 io_oeb[8] 0.00030027
2 *24341:LO 0.00030027
3 io_oeb[8] *380:8 0
*RES
1 *24341:LO io_oeb[8] 48.4875 
*END

*D_NET *22 0.000686181
*CONN
*P io_oeb[9] O
*I *24342:LO O *D sky130_fd_sc_hd__conb_1
*CAP
1 io_oeb[9] 0.00034309
2 *24342:LO 0.00034309
3 io_oeb[9] *380:8 0
*RES
1 *24342:LO io_oeb[9] 49.1918 
*END

*D_NET *23 0.000812725
*CONN
*P io_out[0] O
*I *24327:X O *D sky130_fd_sc_hd__buf_2
*CAP
1 io_out[0] 0.000112553
2 *24327:X 0.00029381
3 *23:10 0.000406363
4 *23:10 *315:10 0
*RES
1 *24327:X *23:10 42.5054 
2 *23:10 io_out[0] 8.4816 
*END

*D_NET *24 0.000800698
*CONN
*P io_out[10] O
*I *24328:X O *D sky130_fd_sc_hd__buf_2
*CAP
1 io_out[10] 0.000400349
2 *24328:X 0.000400349
3 io_out[10] *380:8 0
*RES
1 *24328:X io_out[10] 49.8901 
*END

*D_NET *25 0.00083194
*CONN
*P io_out[1] O
*I *24329:X O *D sky130_fd_sc_hd__buf_2
*CAP
1 io_out[1] 0.00012216
2 *24329:X 0.00029381
3 *25:10 0.00041597
4 *25:10 *315:10 0
*RES
1 *24329:X *25:10 42.5054 
2 *25:10 io_out[1] 8.4816 
*END

*D_NET *26 0.000812725
*CONN
*P io_out[2] O
*I *24330:X O *D sky130_fd_sc_hd__buf_2
*CAP
1 io_out[2] 0.000112553
2 *24330:X 0.00029381
3 *26:10 0.000406363
4 *26:10 *315:18 0
*RES
1 *24330:X *26:10 42.5054 
2 *26:10 io_out[2] 8.4816 
*END

*D_NET *27 0.00083194
*CONN
*P io_out[3] O
*I *24331:X O *D sky130_fd_sc_hd__buf_2
*CAP
1 io_out[3] 0.00012216
2 *24331:X 0.00029381
3 *27:10 0.00041597
4 *27:10 *402:10 0
*RES
1 *24331:X *27:10 42.5054 
2 *27:10 io_out[3] 8.4816 
*END

*D_NET *28 0.000812725
*CONN
*P io_out[4] O
*I *24332:X O *D sky130_fd_sc_hd__buf_2
*CAP
1 io_out[4] 0.000112553
2 *24332:X 0.00029381
3 *28:10 0.000406363
4 *28:10 *424:10 0
*RES
1 *24332:X *28:10 42.5054 
2 *28:10 io_out[4] 8.4816 
*END

*D_NET *29 0.00083194
*CONN
*P io_out[5] O
*I *24322:X O *D sky130_fd_sc_hd__buf_2
*CAP
1 io_out[5] 0.00012216
2 *24322:X 0.00029381
3 *29:10 0.00041597
4 *29:10 *316:8 0
*RES
1 *24322:X *29:10 42.5054 
2 *29:10 io_out[5] 8.4816 
*END

*D_NET *30 0.000812725
*CONN
*P io_out[6] O
*I *24323:X O *D sky130_fd_sc_hd__buf_2
*CAP
1 io_out[6] 0.000112553
2 *24323:X 0.00029381
3 *30:10 0.000406363
4 *30:10 *327:12 0
*RES
1 *24323:X *30:10 42.5054 
2 *30:10 io_out[6] 8.4816 
*END

*D_NET *31 0.000669229
*CONN
*P io_out[7] O
*I *24324:X O *D sky130_fd_sc_hd__buf_2
*CAP
1 io_out[7] 0.000334615
2 *24324:X 0.000334615
3 io_out[7] *380:8 0
*RES
1 *24324:X io_out[7] 48.5734 
*END

*D_NET *32 0.000645289
*CONN
*P io_out[8] O
*I *24325:X O *D sky130_fd_sc_hd__buf_2
*CAP
1 io_out[8] 0.000322645
2 *24325:X 0.000322645
3 io_out[8] *380:8 0
*RES
1 *24325:X io_out[8] 48.5734 
*END

*D_NET *33 0.00067614
*CONN
*P io_out[9] O
*I *24326:X O *D sky130_fd_sc_hd__buf_2
*CAP
1 io_out[9] 0.00033807
2 *24326:X 0.00033807
3 io_out[9] *380:8 0
*RES
1 *24326:X io_out[9] 48.9255 
*END

*D_NET *36 0.0269343
*CONN
*P wb_clk_i I
*I *24207:A I *D sky130_fd_sc_hd__clkbuf_16
*I *484:DIODE I *D sky130_fd_sc_hd__diode_2
*CAP
1 wb_clk_i 0.00233327
2 *24207:A 9.77407e-05
3 *484:DIODE 0
4 *36:17 0.000107541
5 *36:13 0.0107962
6 *36:7 0.0131197
7 *24207:A *162:40 0.000152169
8 *24207:A *179:23 0.000293134
9 *36:17 *162:40 9.86551e-06
10 *36:17 *179:23 2.47015e-05
*RES
1 wb_clk_i *36:7 16.2712 
2 *36:7 *36:13 45.4733 
3 *36:13 *36:17 8.32107 
4 *36:17 *484:DIODE 38 
5 *36:17 *24207:A 42.0186 
*END

*D_NET *37 0.000730756
*CONN
*P wb_rst_i I
*I *24321:A I *D sky130_fd_sc_hd__buf_2
*CAP
1 wb_rst_i 0.000365378
2 *24321:A 0
3 *37:17 0.000365378
*RES
1 wb_rst_i *37:17 28.2148 
2 *37:17 *24321:A 23 
*END

*D_NET *38 0.000136934
*CONN
*I *24240:A I *D sky130_fd_sc_hd__dlygate4sd3_1
*I *23899:X O *D sky130_fd_sc_hd__mux2_1
*CAP
1 *24240:A 6.84668e-05
2 *23899:X 6.84668e-05
*RES
1 *23899:X *24240:A 47.1186 
*END

*D_NET *39 0.0014578
*CONN
*I *24262:A I *D sky130_fd_sc_hd__dlygate4sd3_1
*I *23901:X O *D sky130_fd_sc_hd__a22o_1
*CAP
1 *24262:A 0
2 *23901:X 0.000544774
3 *39:10 0.000544774
4 *39:10 *24251:A 0.00031495
5 *39:10 *375:10 5.3304e-05
*RES
1 *23901:X *39:10 32.715 
2 *39:10 *24262:A 23 
*END

*D_NET *40 0.00280385
*CONN
*I *24154:D I *D sky130_fd_sc_hd__dfxtp_1
*I *23947:X O *D sky130_fd_sc_hd__o21a_1
*CAP
1 *24154:D 0
2 *23947:X 0.00011254
3 *40:14 0.000944952
4 *40:8 0.00105749
5 *40:8 *23947:B1 5.41385e-05
6 *40:14 *82:8 0.000135557
7 *40:14 *83:8 0
8 *40:14 *148:16 0
9 *40:14 *201:51 6.78463e-05
10 *40:14 *298:10 0
11 *40:14 *300:10 0.000169674
12 *40:14 *310:74 0.000102738
13 *40:14 *414:10 0
14 *40:14 *467:8 0.00012077
15 *40:14 *468:8 3.81391e-05
*RES
1 *23947:X *40:8 39.5743 
2 *40:8 *40:14 34.6009 
3 *40:14 *24154:D 23 
*END

*D_NET *41 0.000429657
*CONN
*I *24155:D I *D sky130_fd_sc_hd__dfxtp_1
*I *23987:X O *D sky130_fd_sc_hd__and2_1
*CAP
1 *24155:D 5.79571e-05
2 *23987:X 4.27883e-05
3 *41:8 0.000100745
4 *41:8 *95:49 0.000114083
5 *41:8 *97:17 0.000114083
*RES
1 *23987:X *41:8 39.5536 
2 *41:8 *24155:D 38.668 
*END

*D_NET *42 0.000408143
*CONN
*I *24274:A I *D sky130_fd_sc_hd__dlygate4sd3_1
*I *23989:X O *D sky130_fd_sc_hd__o211a_1
*CAP
1 *24274:A 9.37145e-05
2 *23989:X 8.61681e-05
3 *42:8 0.000179883
4 *42:8 *23989:A1 4.83778e-05
*RES
1 *23989:X *42:8 39.9057 
2 *42:8 *24274:A 39.5743 
*END

*D_NET *43 0.000707474
*CONN
*I *24250:A I *D sky130_fd_sc_hd__dlygate4sd3_1
*I *23991:X O *D sky130_fd_sc_hd__o211a_1
*CAP
1 *24250:A 0.000242963
2 *23991:X 0.000110774
3 *43:8 0.000353737
*RES
1 *23991:X *43:8 39.9057 
2 *43:8 *24250:A 42.4329 
*END

*D_NET *44 0.00128232
*CONN
*I *24158:D I *D sky130_fd_sc_hd__dfxtp_2
*I *23993:Y O *D sky130_fd_sc_hd__nor2_1
*CAP
1 *24158:D 3.44481e-05
2 *23993:Y 0.0003113
3 *44:8 0.000345748
4 *24158:D *105:59 1.86404e-05
5 *44:8 *355:40 0.000319197
6 *44:8 *364:139 0.000164272
7 *44:8 *437:23 0
8 *44:8 *439:10 8.87137e-05
*RES
1 *23993:Y *44:8 45.1879 
2 *44:8 *24158:D 38.668 
*END

*D_NET *45 0.0015308
*CONN
*I *24283:A I *D sky130_fd_sc_hd__dlygate4sd3_1
*I *23996:X O *D sky130_fd_sc_hd__o211a_1
*CAP
1 *24283:A 0
2 *23996:X 0.000546541
3 *45:10 0.000546541
4 *45:10 *23996:A2 0.000137131
5 *45:10 *24160:CLK 0
6 *45:10 *46:10 0.000146207
7 *45:10 *89:127 0
8 *45:10 *105:59 0
9 *45:10 *359:8 4.31263e-05
10 *45:10 *359:29 4.3407e-05
11 *45:10 *359:36 6.78463e-05
*RES
1 *23996:X *45:10 47.9636 
2 *45:10 *24283:A 38 
*END

*D_NET *46 0.00375722
*CONN
*I *24160:D I *D sky130_fd_sc_hd__dfxtp_1
*I *23998:X O *D sky130_fd_sc_hd__o211a_1
*CAP
1 *24160:D 0
2 *23998:X 0.00104464
3 *46:10 0.00104464
4 *46:10 *23996:A2 0.000442715
5 *46:10 *308:86 0.00013961
6 *46:10 *359:29 0.000227279
7 *46:10 *442:8 0.000121654
8 *46:10 *442:23 0.000590474
9 *45:10 *46:10 0.000146207
*RES
1 *23998:X *46:10 42.9945 
2 *46:10 *24160:D 23 
*END

*D_NET *47 0.000406417
*CONN
*I *24255:A I *D sky130_fd_sc_hd__dlygate4sd3_1
*I *24000:Y O *D sky130_fd_sc_hd__a21oi_1
*CAP
1 *24255:A 7.69744e-05
2 *24000:Y 7.69744e-05
3 *24255:A *24000:B1 7.05498e-05
4 *24255:A *364:37 0.000181919
*RES
1 *24000:Y *24255:A 48.5479 
*END

*D_NET *48 0.00128177
*CONN
*I *24233:A I *D sky130_fd_sc_hd__dlygate4sd3_1
*I *24002:X O *D sky130_fd_sc_hd__o211a_1
*CAP
1 *24233:A 0
2 *24002:X 0.000280917
3 *48:10 0.000280917
4 *48:10 *24002:A2 0.000141052
5 *48:10 *384:19 0.00045811
6 *48:10 *444:19 0.00012077
*RES
1 *24002:X *48:10 45.25 
2 *48:10 *24233:A 38 
*END

*D_NET *49 0.000126903
*CONN
*I *24267:A I *D sky130_fd_sc_hd__dlygate4sd3_1
*I *24004:X O *D sky130_fd_sc_hd__o211a_1
*CAP
1 *24267:A 6.74574e-06
2 *24004:X 6.74574e-06
3 *24267:A *357:116 5.67058e-05
4 *24267:A *418:12 5.67058e-05
*RES
1 *24004:X *24267:A 46.6214 
*END

*D_NET *50 0.000704856
*CONN
*I *24258:A I *D sky130_fd_sc_hd__dlygate4sd3_1
*I *24012:X O *D sky130_fd_sc_hd__and3_1
*CAP
1 *24258:A 0.000141384
2 *24012:X 4.32137e-05
3 *50:8 0.000184598
4 *24258:A *204:10 4.96717e-05
5 *50:8 *95:36 0.000141879
6 *50:8 *313:12 0.00014411
*RES
1 *24012:X *50:8 39.9057 
2 *50:8 *24258:A 40.0507 
*END

*D_NET *51 0.000535799
*CONN
*I *24253:A I *D sky130_fd_sc_hd__dlygate4sd3_1
*I *24021:X O *D sky130_fd_sc_hd__o211a_1
*CAP
1 *24253:A 0
2 *24021:X 0.000149183
3 *51:10 0.000149183
4 *51:10 *24019:B 4.58924e-05
5 *51:10 *24021:A1 4.9662e-05
6 *51:10 *354:32 0.000141879
*RES
1 *24021:X *51:10 41.0036 
2 *51:10 *24253:A 38 
*END

*D_NET *52 0.000406489
*CONN
*I *24313:A I *D sky130_fd_sc_hd__dlygate4sd3_1
*I *24033:X O *D sky130_fd_sc_hd__o211a_1
*CAP
1 *24313:A 9.81417e-05
2 *24033:X 9.81417e-05
3 *24313:A *210:29 0.000117809
4 *24313:A *354:34 4.27248e-05
5 *24313:A *354:65 4.96717e-05
*RES
1 *24033:X *24313:A 48.5271 
*END

*D_NET *53 0.000351047
*CONN
*I *24289:A I *D sky130_fd_sc_hd__dlygate4sd3_1
*I *24045:X O *D sky130_fd_sc_hd__o211a_1
*CAP
1 *24289:A 2.95294e-05
2 *24045:X 8.20653e-05
3 *53:8 0.000111595
4 *24289:A *220:48 5.50049e-05
5 *53:8 *220:48 7.28526e-05
6 *53:8 *353:98 0
7 *53:8 *356:120 0
*RES
1 *24045:X *53:8 39.9057 
2 *53:8 *24289:A 38.6214 
*END

*D_NET *54 0.000661454
*CONN
*I *24315:A I *D sky130_fd_sc_hd__dlygate4sd3_1
*I *24056:X O *D sky130_fd_sc_hd__o211a_1
*CAP
1 *24315:A 0
2 *24056:X 0.000314583
3 *54:10 0.000314583
4 *54:10 *244:10 0
5 *54:10 *353:111 3.22879e-05
6 *54:10 *356:133 0
*RES
1 *24056:X *54:10 43.3443 
2 *54:10 *24315:A 38 
*END

*D_NET *55 0.00122219
*CONN
*I *24296:A I *D sky130_fd_sc_hd__dlygate4sd3_1
*I *24063:X O *D sky130_fd_sc_hd__o211a_1
*CAP
1 *24296:A 0
2 *24063:X 0.0004156
3 *55:10 0.0004156
4 *55:10 *248:8 3.83778e-05
5 *55:10 *249:8 6.79006e-05
6 *55:10 *328:28 5.67058e-05
7 *55:10 *328:30 0.000228001
*RES
1 *24063:X *55:10 45.7264 
2 *55:10 *24296:A 38 
*END

*D_NET *56 0.000500558
*CONN
*I *24231:A I *D sky130_fd_sc_hd__dlygate4sd3_1
*I *24071:X O *D sky130_fd_sc_hd__o211a_1
*CAP
1 *24231:A 0
2 *24071:X 0.000230767
3 *56:10 0.000230767
4 *56:10 *503:DIODE 0
5 *56:10 *24071:A1 1.94693e-05
6 *56:10 *252:8 1.95556e-05
*RES
1 *24071:X *56:10 41.48 
2 *56:10 *24231:A 38 
*END

*D_NET *57 0.0024763
*CONN
*I *24309:A I *D sky130_fd_sc_hd__dlygate4sd3_1
*I *24075:X O *D sky130_fd_sc_hd__and3_1
*CAP
1 *24309:A 0
2 *24075:X 0.000621401
3 *57:12 0.000126199
4 *57:6 0.0007476
5 *57:6 *259:16 0.000973032
6 *57:6 *353:134 8.06804e-06
7 *57:12 *348:8 0
*RES
1 *24075:X *57:6 36.485 
2 *57:6 *57:12 32.2579 
3 *57:12 *24309:A 23 
*END

*D_NET *58 0.00148535
*CONN
*I *24295:A I *D sky130_fd_sc_hd__dlygate4sd3_1
*I *24077:Y O *D sky130_fd_sc_hd__a21oi_1
*CAP
1 *24295:A 0
2 *24077:Y 0.000549459
3 *58:10 0.000549459
4 *58:10 *24076:A2 0.000213551
5 *58:10 *24077:B1 3.7122e-06
6 *58:10 *24284:A 3.7122e-06
7 *58:10 *309:103 0.000103176
8 *58:10 *362:202 0
9 *58:10 *377:6 6.22796e-05
*RES
1 *24077:Y *58:10 46.6793 
2 *58:10 *24295:A 38 
*END

*D_NET *59 0.000910642
*CONN
*I *24299:A I *D sky130_fd_sc_hd__dlygate4sd3_1
*I *24082:Y O *D sky130_fd_sc_hd__a311oi_1
*CAP
1 *24299:A 0.000254302
2 *24082:Y 5.40678e-05
3 *59:8 0.000308369
4 *24299:A *307:32 0.000103647
5 *59:8 *263:27 0.000141879
6 *59:8 *369:10 4.83778e-05
*RES
1 *24082:Y *59:8 39.9057 
2 *59:8 *24299:A 42.4329 
*END

*D_NET *60 0.00155724
*CONN
*I *24174:D I *D sky130_fd_sc_hd__dfxtp_2
*I *24085:Y O *D sky130_fd_sc_hd__a21oi_1
*CAP
1 *24174:D 4.85811e-05
2 *24085:Y 0.000618923
3 *60:10 0.000667505
4 *24174:D *307:28 3.32987e-05
5 *60:10 *24085:B1 8.19612e-05
6 *60:10 *101:12 0
7 *60:10 *368:30 6.03634e-05
8 *60:10 *368:62 4.66036e-05
*RES
1 *24085:Y *60:10 47.6321 
2 *60:10 *24174:D 38.9943 
*END

*D_NET *61 0.000977212
*CONN
*I *24175:D I *D sky130_fd_sc_hd__dfxtp_1
*I *24086:X O *D sky130_fd_sc_hd__and2_1
*CAP
1 *24175:D 6.82756e-05
2 *24086:X 0.000201248
3 *61:8 0.000269524
4 *24175:D *400:56 5.65198e-05
5 *61:8 *362:10 0
6 *61:8 *368:62 0.000381644
7 *61:8 *400:43 0
*RES
1 *24086:X *61:8 43.075 
2 *61:8 *24175:D 39.6209 
*END

*D_NET *62 0.000938034
*CONN
*I *24292:A I *D sky130_fd_sc_hd__dlygate4sd3_1
*I *24088:X O *D sky130_fd_sc_hd__o211a_1
*CAP
1 *24292:A 0
2 *24088:X 0.00025344
3 *62:10 0.00025344
4 *62:10 *24088:A1 5.69371e-05
5 *62:10 *24291:A 0.000128583
6 *62:10 *200:44 0.00023549
7 *62:10 *311:25 1.01436e-05
8 *62:10 *325:8 0
*RES
1 *24088:X *62:10 43.8207 
2 *62:10 *24292:A 38 
*END

*D_NET *63 0.00037744
*CONN
*I *24277:A I *D sky130_fd_sc_hd__dlygate4sd3_1
*I *24091:Y O *D sky130_fd_sc_hd__a21oi_1
*CAP
1 *24277:A 9.998e-05
2 *24091:Y 9.998e-05
3 *24277:A *24091:A1 1.94693e-05
4 *24277:A *24091:B1 5.37348e-06
5 *24277:A *103:27 9.76261e-05
6 *24277:A *270:8 5.50106e-05
*RES
1 *24091:Y *24277:A 48.5479 
*END

*D_NET *64 0.00056973
*CONN
*I *24178:D I *D sky130_fd_sc_hd__dfxtp_2
*I *24092:Y O *D sky130_fd_sc_hd__a2111oi_1
*CAP
1 *24178:D 7.54211e-05
2 *24092:Y 5.4232e-05
3 *64:8 0.000129653
4 *24178:D *24178:CLK 9.81682e-05
5 *64:8 *97:17 7.03766e-05
6 *64:8 *448:12 0.000141879
*RES
1 *24092:Y *64:8 39.9057 
2 *64:8 *24178:D 39.1445 
*END

*D_NET *65 0.0018759
*CONN
*I *24279:A I *D sky130_fd_sc_hd__dlygate4sd3_1
*I *24094:Y O *D sky130_fd_sc_hd__nor2_1
*CAP
1 *24279:A 0
2 *24094:Y 0.000581661
3 *65:10 0.000581661
4 *65:10 *24162:CLK 9.13289e-05
5 *65:10 *24243:A 6.17437e-06
6 *65:10 *70:10 3.0647e-05
7 *65:10 *89:39 0.000140671
8 *65:10 *307:146 1.40958e-05
9 *65:10 *357:10 7.03317e-05
10 *65:10 *395:6 0.000359332
*RES
1 *24094:Y *65:10 48.9579 
2 *65:10 *24279:A 38 
*END

*D_NET *66 0.000184143
*CONN
*I *24305:A I *D sky130_fd_sc_hd__dlygate4sd3_1
*I *24096:X O *D sky130_fd_sc_hd__and3_1
*CAP
1 *24305:A 7.17288e-05
2 *24096:X 7.17288e-05
3 *24305:A *400:135 4.06849e-05
*RES
1 *24096:X *24305:A 47.595 
*END

*D_NET *67 0.000392357
*CONN
*I *24181:D I *D sky130_fd_sc_hd__dfxtp_1
*I *24097:X O *D sky130_fd_sc_hd__o21a_1
*CAP
1 *24181:D 9.07552e-05
2 *24097:X 9.18104e-05
3 *67:8 0.000182566
4 *24181:D *411:12 2.72257e-05
5 *67:8 *24181:CLK 0
6 *67:8 *411:38 0
*RES
1 *24097:X *67:8 39.5536 
2 *67:8 *24181:D 39.6209 
*END

*D_NET *68 0.000459093
*CONN
*I *24182:D I *D sky130_fd_sc_hd__dfxtp_1
*I *24098:X O *D sky130_fd_sc_hd__and2_1
*CAP
1 *24182:D 4.40241e-05
2 *24098:X 4.27883e-05
3 *68:8 8.68124e-05
4 *24182:D *24182:CLK 5.73018e-05
5 *68:8 *315:33 0.000114083
6 *68:8 *369:10 0.000114083
*RES
1 *24098:X *68:8 39.5536 
2 *68:8 *24182:D 38.668 
*END

*D_NET *69 0.000256113
*CONN
*I *24183:D I *D sky130_fd_sc_hd__dfxtp_1
*I *24099:X O *D sky130_fd_sc_hd__and2_1
*CAP
1 *24183:D 8.20156e-06
2 *24099:X 6.8272e-05
3 *69:8 7.64735e-05
4 *24183:D *90:22 1.64354e-05
5 *69:8 *24183:CLK 3.46181e-05
6 *69:8 *358:10 5.21127e-05
*RES
1 *24099:X *69:8 39.5536 
2 *69:8 *24183:D 38.1916 
*END

*D_NET *70 0.00151841
*CONN
*I *24243:A I *D sky130_fd_sc_hd__dlygate4sd3_1
*I *24101:X O *D sky130_fd_sc_hd__o211a_1
*CAP
1 *24243:A 5.94393e-05
2 *24101:X 0.000462177
3 *70:10 0.000521617
4 *24243:A *24162:CLK 5.50106e-05
5 *70:10 *24304:A 3.71369e-05
6 *70:10 *89:39 0
7 *70:10 *104:40 0.000138718
8 *70:10 *105:10 6.78463e-05
9 *70:10 *357:10 0.000139647
10 *65:10 *24243:A 6.17437e-06
11 *65:10 *70:10 3.0647e-05
*RES
1 *24101:X *70:10 45.7264 
2 *70:10 *24243:A 39.0979 
*END

*D_NET *71 0.00166646
*CONN
*I *24235:A I *D sky130_fd_sc_hd__dlygate4sd3_1
*I *24104:X O *D sky130_fd_sc_hd__o211a_1
*CAP
1 *24235:A 0.000412052
2 *24104:X 6.50786e-05
3 *71:8 0.00047713
4 *24235:A *360:16 0.000506618
5 *71:8 *105:23 6.6869e-05
6 *71:8 *353:86 0.000138718
*RES
1 *24104:X *71:8 39.9057 
2 *71:8 *24235:A 48.15 
*END

*D_NET *72 0.00143018
*CONN
*I *24237:A I *D sky130_fd_sc_hd__dlygate4sd3_1
*I *24107:X O *D sky130_fd_sc_hd__o211a_1
*CAP
1 *24237:A 0
2 *24107:X 0.000414085
3 *72:10 0.000414085
4 *72:10 *277:12 0.00010018
5 *72:10 *334:10 0
6 *72:10 *354:101 1.03836e-05
7 *72:10 *361:32 0.000491451
*RES
1 *24107:X *72:10 47.0729 
2 *72:10 *24237:A 38 
*END

*D_NET *73 0.000957167
*CONN
*I *24301:A I *D sky130_fd_sc_hd__dlygate4sd3_1
*I *24110:X O *D sky130_fd_sc_hd__o211a_1
*CAP
1 *24301:A 4.05375e-05
2 *24110:X 0.000185087
3 *73:8 0.000225625
4 *24301:A *354:153 7.59794e-05
5 *24301:A *361:32 0.000140259
6 *73:8 *354:105 0.000144904
7 *73:8 *355:258 0.000106619
8 *73:8 *355:262 3.81554e-05
*RES
1 *24110:X *73:8 42.7229 
2 *73:8 *24301:A 39.5743 
*END

*D_NET *74 0.000480027
*CONN
*I *24303:A I *D sky130_fd_sc_hd__dlygate4sd3_1
*I *24113:X O *D sky130_fd_sc_hd__o211a_1
*CAP
1 *24303:A 0
2 *24113:X 0.000212623
3 *74:10 0.000212623
4 *74:10 *24188:CLK 5.47808e-05
5 *74:10 *310:156 0
6 *74:10 *336:8 0
*RES
1 *24113:X *74:10 41.48 
2 *74:10 *24303:A 38 
*END

*D_NET *75 0.000555887
*CONN
*I *24189:D I *D sky130_fd_sc_hd__dfxtp_1
*I *24116:X O *D sky130_fd_sc_hd__o211a_1
*CAP
1 *24189:D 0.000186133
2 *24116:X 9.18104e-05
3 *75:8 0.000277943
4 *75:8 *310:188 0
5 *75:8 *354:227 0
*RES
1 *24116:X *75:8 39.5536 
2 *75:8 *24189:D 41.0502 
*END

*D_NET *76 0.000665564
*CONN
*I *24287:A I *D sky130_fd_sc_hd__dlygate4sd3_1
*I *24119:X O *D sky130_fd_sc_hd__o211a_1
*CAP
1 *24287:A 0.000221978
2 *24119:X 0.000110804
3 *76:8 0.000332782
*RES
1 *24119:X *76:8 39.9057 
2 *76:8 *24287:A 41.9564 
*END

*D_NET *77 0.00187286
*CONN
*I *24270:A I *D sky130_fd_sc_hd__dlygate4sd3_1
*I *24121:X O *D sky130_fd_sc_hd__and3b_1
*CAP
1 *24270:A 0.000133492
2 *24121:X 0.000377144
3 *77:16 0.000510636
4 *24270:A *322:6 3.22051e-05
5 *77:16 *24121:A_N 0.000291874
6 *77:16 *24121:B 2.95866e-05
7 *77:16 *187:22 0.000366033
8 *77:16 *220:31 4.92616e-05
9 *77:16 *220:48 8.26312e-05
*RES
1 *24121:X *77:16 48.9993 
2 *77:16 *24270:A 40.0507 
*END

*D_NET *78 0.000761331
*CONN
*I *24265:A I *D sky130_fd_sc_hd__dlygate4sd3_1
*I *24124:X O *D sky130_fd_sc_hd__and3_1
*CAP
1 *24265:A 0
2 *24124:X 0.000218801
3 *78:10 0.000218801
4 *78:10 *24124:C 0.00010018
5 *78:10 *143:10 0
6 *78:10 *288:8 0.000100293
7 *78:10 *406:77 0.000123256
*RES
1 *24124:X *78:10 43.8207 
2 *78:10 *24265:A 38 
*END

*D_NET *79 0.00145903
*CONN
*I *24317:A I *D sky130_fd_sc_hd__dlygate4sd3_1
*I *24127:X O *D sky130_fd_sc_hd__o211a_1
*CAP
1 *24317:A 0.000223622
2 *24127:X 0.00036705
3 *79:8 0.000590673
4 *24317:A *107:110 0
5 *24317:A *343:25 0.000207447
6 *79:8 *24126:A 1.76557e-05
7 *79:8 *290:8 5.25848e-05
*RES
1 *24127:X *79:8 44.815 
2 *79:8 *24317:A 43.4271 
*END

*D_NET *80 0.00108504
*CONN
*I *24245:A I *D sky130_fd_sc_hd__dlygate4sd3_1
*I *24130:X O *D sky130_fd_sc_hd__o211a_1
*CAP
1 *24245:A 0
2 *24130:X 0.000379796
3 *80:10 0.000379796
4 *80:10 *357:131 0.000325451
*RES
1 *24130:X *80:10 44.815 
2 *80:10 *24245:A 38 
*END

*D_NET *81 0.000453194
*CONN
*I *24239:A I *D sky130_fd_sc_hd__dlygate4sd3_1
*I *24133:X O *D sky130_fd_sc_hd__o211a_1
*CAP
1 *24239:A 0.000119361
2 *24133:X 0.000107236
3 *81:8 0.000226597
4 *81:8 *310:30 0
*RES
1 *24133:X *81:8 39.9057 
2 *81:8 *24239:A 40.0507 
*END

*D_NET *82 0.00146792
*CONN
*I *24261:A I *D sky130_fd_sc_hd__dlygate4sd3_1
*I *24137:X O *D sky130_fd_sc_hd__o211a_1
*CAP
1 *24261:A 0
2 *24137:X 0.000487887
3 *82:8 0.000487887
4 *82:8 *111:14 0
5 *82:8 *112:14 0.000302358
6 *82:8 *148:16 1.94522e-05
7 *82:8 *201:51 0
8 *82:8 *318:23 3.47776e-05
9 *40:14 *82:8 0.000135557
*RES
1 *24137:X *82:8 48.3571 
2 *82:8 *24261:A 38 
*END

*D_NET *83 0.00140904
*CONN
*I *24197:D I *D sky130_fd_sc_hd__dfxtp_1
*I *24141:X O *D sky130_fd_sc_hd__o211a_1
*CAP
1 *24197:D 0.000147517
2 *24141:X 0.000557004
3 *83:8 0.000704521
4 *83:8 *24196:CLK 0
5 *83:8 *414:10 0
6 *40:14 *83:8 0
*RES
1 *24141:X *83:8 48.7093 
2 *83:8 *24197:D 40.5737 
*END

*D_NET *84 0.00110704
*CONN
*I *24198:D I *D sky130_fd_sc_hd__dfxtp_1
*I *24142:X O *D sky130_fd_sc_hd__and3_1
*CAP
1 *24198:D 0
2 *24142:X 0.000267865
3 *84:8 0.000267865
4 *84:8 *24198:CLK 4.85812e-05
5 *84:8 *432:14 6.64204e-05
6 *84:8 *432:30 0.000456312
*RES
1 *24142:X *84:8 29.6079 
2 *84:8 *24198:D 23 
*END

*D_NET *85 0.000446132
*CONN
*I *24199:D I *D sky130_fd_sc_hd__dfxtp_1
*I *24143:X O *D sky130_fd_sc_hd__and3_1
*CAP
1 *24199:D 1.38132e-05
2 *24143:X 0.000148647
3 *85:10 0.00016246
4 *24199:D *107:44 4.9054e-06
5 *85:10 *23940:B 3.22051e-05
6 *85:10 *139:23 0
7 *85:10 *359:36 8.41012e-05
*RES
1 *24143:X *85:10 40.8793 
2 *85:10 *24199:D 38.1916 
*END

*D_NET *86 0.000522079
*CONN
*I *24200:D I *D sky130_fd_sc_hd__dfxtp_1
*I *24146:X O *D sky130_fd_sc_hd__o211a_1
*CAP
1 *24200:D 1.65545e-05
2 *24146:X 8.54413e-05
3 *86:8 0.000101996
4 *24200:D *398:35 0.000102732
5 *24200:D *434:42 0.000104433
6 *86:8 *398:10 0
7 *86:8 *434:50 0.000110922
*RES
1 *24146:X *86:8 39.5536 
2 *86:8 *24200:D 39.1445 
*END

*D_NET *87 0.000971883
*CONN
*I *24247:A I *D sky130_fd_sc_hd__dlygate4sd3_1
*I *24148:Y O *D sky130_fd_sc_hd__a21oi_1
*CAP
1 *24247:A 6.40259e-05
2 *24148:Y 0.000171679
3 *87:10 0.000235705
4 *24247:A *24149:B 5.37348e-06
5 *24247:A *88:10 3.22879e-05
6 *24247:A *107:90 9.5877e-05
7 *87:10 *23906:B1_N 2.22183e-05
8 *87:10 *24147:A1 2.93747e-05
9 *87:10 *108:28 1.69668e-05
10 *87:10 *326:33 0.000235024
11 *87:10 *398:48 6.33511e-05
*RES
1 *24148:Y *87:10 41.9357 
2 *87:10 *24247:A 39.5743 
*END

*D_NET *88 0.000932267
*CONN
*I *24202:D I *D sky130_fd_sc_hd__dfxtp_1
*I *24149:X O *D sky130_fd_sc_hd__and3_1
*CAP
1 *24202:D 0
2 *24149:X 0.000361035
3 *88:10 0.000361035
4 *88:10 *107:73 0
5 *88:10 *308:94 0.000177909
6 *24247:A *88:10 3.22879e-05
*RES
1 *24149:X *88:10 30.5245 
2 *88:10 *24202:D 23 
*END

*D_NET *89 0.0250933
*CONN
*I *24004:A1 I *D sky130_fd_sc_hd__o211a_1
*I *23996:A1 I *D sky130_fd_sc_hd__o211a_1
*I *23998:A1 I *D sky130_fd_sc_hd__o211a_1
*I *23995:B1 I *D sky130_fd_sc_hd__o21ai_1
*I *23997:A I *D sky130_fd_sc_hd__nand2_1
*I *23897:A I *D sky130_fd_sc_hd__nand2_1
*I *24002:A1 I *D sky130_fd_sc_hd__o211a_1
*I *24097:A2 I *D sky130_fd_sc_hd__o21a_1
*I *24093:A2 I *D sky130_fd_sc_hd__o21ai_1
*I *24092:B1 I *D sky130_fd_sc_hd__a2111oi_1
*I *23873:Y O *D sky130_fd_sc_hd__inv_2
*CAP
1 *24004:A1 0
2 *23996:A1 0
3 *23998:A1 0
4 *23995:B1 0
5 *23997:A 0
6 *23897:A 0
7 *24002:A1 0
8 *24097:A2 0.000117677
9 *24093:A2 7.93664e-05
10 *24092:B1 0
11 *23873:Y 0.000111233
12 *89:159 0.000791699
13 *89:139 4.66032e-05
14 *89:133 0.00146298
15 *89:127 0.0016427
16 *89:113 8.75586e-05
17 *89:96 0.000249751
18 *89:88 0.000425358
19 *89:84 0.000149536
20 *89:80 0.0010658
21 *89:76 0.00277079
22 *89:61 0.00139611
23 *89:39 0.000679891
24 *89:35 0.00157299
25 *89:28 0.000724597
26 *89:10 0.00161973
27 *89:8 0.000111233
28 *24093:A2 *201:14 0.000487147
29 *24093:A2 *357:40 8.52481e-05
30 *24093:A2 *357:42 0.000301719
31 *24093:A2 *357:46 0.00010018
32 *24097:A2 *357:92 6.68793e-05
33 *24097:A2 *365:59 0
34 *89:8 *90:159 9.98995e-05
35 *89:8 *95:23 0
36 *89:8 *95:36 0
37 *89:28 *486:DIODE 3.71369e-05
38 *89:28 *24092:A1 0.000183126
39 *89:28 *90:118 1.01436e-05
40 *89:28 *90:133 0.000262178
41 *89:28 *90:141 0
42 *89:28 *90:159 0
43 *89:28 *95:23 0.000543641
44 *89:28 *103:14 3.50723e-05
45 *89:28 *368:110 1.57571e-05
46 *89:35 *104:40 0.000139352
47 *89:35 *104:50 0.000243083
48 *89:35 *198:8 3.40939e-05
49 *89:35 *365:103 0.000409917
50 *89:39 *24181:CLK 0
51 *89:39 *104:40 9.48381e-06
52 *89:39 *307:144 0
53 *89:39 *307:170 0
54 *89:39 *312:39 2.71291e-05
55 *89:39 *357:10 0
56 *89:39 *357:38 0
57 *89:61 *24002:A2 2.90712e-05
58 *89:61 *24002:B1 9.8971e-06
59 *89:61 *104:40 0.000140259
60 *89:76 *24002:A2 0.000266265
61 *89:76 *24192:D 0.00017248
62 *89:76 *384:19 0.000130423
63 *89:76 *463:10 1.04148e-05
64 *89:80 *499:DIODE 0
65 *89:80 *23999:A 0.000240426
66 *89:80 *105:59 0
67 *89:80 *192:34 0.00174871
68 *89:80 *355:67 0
69 *89:80 *406:77 0.000663315
70 *89:84 *192:34 0.00010018
71 *89:84 *193:10 2.18409e-05
72 *89:88 *23995:A1 5.90132e-05
73 *89:88 *192:23 1.22822e-05
74 *89:88 *192:34 4.95081e-05
75 *89:88 *193:10 5.67058e-05
76 *89:96 *23995:A1 0.00018277
77 *89:96 *194:16 5.56356e-05
78 *89:96 *194:37 7.15083e-05
79 *89:96 *308:25 0.000114483
80 *89:96 *365:19 0.000381644
81 *89:113 *23995:A1 0.000100399
82 *89:113 *192:23 9.01552e-05
83 *89:113 *308:25 5.94125e-05
84 *89:127 *24160:CLK 0
85 *89:127 *193:10 0
86 *89:127 *308:25 0
87 *89:133 *24160:CLK 0
88 *89:133 *193:10 0
89 *89:133 *308:25 0
90 *89:133 *308:65 0.000219883
91 *89:133 *308:78 0.000788861
92 *89:133 *326:14 0.000395895
93 *89:133 *326:33 5.50106e-05
94 *89:133 *440:23 3.58084e-06
95 *89:139 *326:20 0.000141879
96 *89:139 *367:25 0.000141879
97 *89:159 *24123:A 0.000230604
98 *89:159 *197:8 0
99 *89:159 *354:109 0
100 *89:159 *359:53 0
101 *89:159 *359:59 0
102 *89:159 *406:77 0
103 *89:159 *418:12 1.14452e-05
104 *45:10 *89:127 0
105 *65:10 *89:39 0.000140671
106 *70:10 *89:39 0
*RES
1 *23873:Y *89:8 40.61 
2 *89:8 *89:10 15 
3 *89:10 *89:28 47.0479 
4 *89:28 *24092:B1 23 
5 *89:10 *89:35 16.82 
6 *89:35 *89:39 23.9486 
7 *89:39 *24093:A2 43.3857 
8 *89:39 *24097:A2 40.2579 
9 *89:35 *89:61 3.85286 
10 *89:61 *24002:A1 23 
11 *89:61 *89:76 17.6279 
12 *89:76 *89:80 38.7386 
13 *89:80 *89:84 16.5743 
14 *89:84 *89:88 2.54786 
15 *89:88 *89:96 37.1257 
16 *89:96 *23897:A 23 
17 *89:88 *89:113 32.2061 
18 *89:113 *23997:A 23 
19 *89:84 *23995:B1 23 
20 *89:80 *89:127 4.06 
21 *89:127 *89:133 37.0607 
22 *89:133 *89:139 31.9057 
23 *89:139 *23998:A1 23 
24 *89:127 *23996:A1 38 
25 *89:76 *89:159 42.9257 
26 *89:159 *24004:A1 23 
*END

*D_NET *90 0.0240342
*CONN
*I *515:DIODE I *D sky130_fd_sc_hd__diode_2
*I *24084:B1 I *D sky130_fd_sc_hd__o21ai_1
*I *509:DIODE I *D sky130_fd_sc_hd__diode_2
*I *495:DIODE I *D sky130_fd_sc_hd__diode_2
*I *23987:A I *D sky130_fd_sc_hd__and2_1
*I *501:DIODE I *D sky130_fd_sc_hd__diode_2
*I *24008:A I *D sky130_fd_sc_hd__and2_2
*I *24088:C1 I *D sky130_fd_sc_hd__o211a_1
*I *497:DIODE I *D sky130_fd_sc_hd__diode_2
*I *23989:C1 I *D sky130_fd_sc_hd__o211a_1
*I *496:DIODE I *D sky130_fd_sc_hd__diode_2
*I *23991:C1 I *D sky130_fd_sc_hd__o211a_1
*I *507:DIODE I *D sky130_fd_sc_hd__diode_2
*I *24099:A I *D sky130_fd_sc_hd__and2_1
*I *513:DIODE I *D sky130_fd_sc_hd__diode_2
*I *24098:A I *D sky130_fd_sc_hd__and2_1
*I *23874:Y O *D sky130_fd_sc_hd__inv_2
*CAP
1 *515:DIODE 0
2 *24084:B1 4.27005e-05
3 *509:DIODE 8.32777e-05
4 *495:DIODE 0
5 *23987:A 0.000189129
6 *501:DIODE 0.000166504
7 *24008:A 0
8 *24088:C1 3.38811e-05
9 *497:DIODE 0
10 *23989:C1 9.9156e-05
11 *496:DIODE 0.000229418
12 *23991:C1 0
13 *507:DIODE 0
14 *24099:A 0
15 *513:DIODE 0
16 *24098:A 0.000147552
17 *23874:Y 0.000234753
18 *90:163 0.000436361
19 *90:159 0.00165954
20 *90:145 0.000208941
21 *90:141 0.00168948
22 *90:133 0.00064796
23 *90:118 0.00164408
24 *90:112 0.00145081
25 *90:83 0.00110753
26 *90:60 0.000898754
27 *90:56 0.000493937
28 *90:49 0.000691712
29 *90:45 0.000843586
30 *90:22 0.00058593
31 *90:14 0.000581937
32 *90:10 0.000644856
33 *90:8 0.000337883
34 *496:DIODE *308:37 1.58805e-05
35 *496:DIODE *403:8 5.61311e-05
36 *501:DIODE *200:44 5.56356e-05
37 *501:DIODE *201:8 0.000106277
38 *509:DIODE *24254:A 8.264e-05
39 *23987:A *188:12 0.00022109
40 *23989:C1 *23989:B1 1.14452e-05
41 *23989:C1 *308:37 6.08032e-05
42 *24084:B1 *24084:A2 0.000264735
43 *24084:B1 *307:32 0.000277173
44 *24088:C1 *24092:A1 5.50049e-05
45 *90:8 *23874:A 5.41385e-05
46 *90:8 *24079:A2 9.9002e-05
47 *90:10 *24079:A2 4.288e-05
48 *90:14 *24079:A1 0.00010776
49 *90:14 *24079:A2 1.3523e-05
50 *90:14 *263:12 0.000100733
51 *90:22 *24079:B1 0
52 *90:22 *24099:B 3.3123e-05
53 *90:22 *307:34 0
54 *90:22 *358:10 3.83778e-05
55 *90:45 *24079:B1 5.36457e-05
56 *90:45 *24083:C 4.16868e-05
57 *90:45 *24085:A1 0.000175449
58 *90:45 *264:12 4.6318e-06
59 *90:49 *24083:A_N 4.79641e-05
60 *90:49 *368:44 0.000359819
61 *90:56 *23991:A2 0.000118217
62 *90:56 *24083:A_N 0.0001164
63 *90:60 *23991:A2 0.000230604
64 *90:83 *23991:A2 2.9938e-05
65 *90:83 *23991:B1 0.000159598
66 *90:83 *308:37 0.000472036
67 *90:83 *400:10 0.000161756
68 *90:112 *264:10 2.71291e-05
69 *90:112 *264:12 4.85126e-05
70 *90:118 *24080:A1 3.65271e-05
71 *90:118 *24084:A2 0.000221997
72 *90:118 *24173:CLK 0
73 *90:118 *24206:A 0
74 *90:118 *95:23 3.75401e-05
75 *90:118 *98:14 0
76 *90:118 *99:31 0.000392263
77 *90:118 *103:25 0.000394042
78 *90:118 *200:12 0
79 *90:118 *268:10 0.000160182
80 *90:118 *304:12 0
81 *90:118 *307:32 0.000395901
82 *90:118 *307:34 0
83 *90:118 *332:8 0
84 *90:118 *362:37 0
85 *90:118 *449:10 0
86 *90:133 *24254:A 0.000269781
87 *90:133 *99:59 6.3568e-06
88 *90:133 *200:44 0
89 *90:133 *268:10 1.01436e-05
90 *90:141 *200:44 0.000323031
91 *90:159 *24005:A3 5.3365e-05
92 *90:159 *24011:B 0.000177822
93 *90:159 *24012:B 0
94 *90:159 *24017:A 0
95 *90:159 *24018:C_N 0.000210557
96 *90:159 *24031:B 0
97 *90:159 *95:36 0
98 *90:159 *203:23 6.43005e-05
99 *90:159 *204:10 0
100 *90:159 *210:29 0
101 *90:159 *354:14 0
102 *90:159 *354:32 0.00149726
103 *90:159 *360:30 0
104 *90:159 *409:8 0.000400905
105 *90:163 *188:12 0.00010018
106 *24183:D *90:22 1.64354e-05
107 *89:8 *90:159 9.98995e-05
108 *89:28 *90:118 1.01436e-05
109 *89:28 *90:133 0.000262178
110 *89:28 *90:141 0
111 *89:28 *90:159 0
*RES
1 *23874:Y *90:8 27.4536 
2 *90:8 *90:10 1.57429 
3 *90:10 *90:14 4.32929 
4 *90:14 *90:22 36.2143 
5 *90:22 *24098:A 25.9 
6 *90:22 *513:DIODE 23 
7 *90:14 *24099:A 23 
8 *90:10 *90:45 23.5964 
9 *90:45 *90:49 19.9093 
10 *90:49 *507:DIODE 23 
11 *90:49 *90:56 5.86214 
12 *90:56 *90:60 3.37643 
13 *90:60 *23991:C1 23 
14 *90:60 *90:83 30.66 
15 *90:83 *496:DIODE 42.06 
16 *90:83 *23989:C1 39.9057 
17 *90:56 *497:DIODE 23 
18 *90:45 *90:112 17.2579 
19 *90:112 *90:118 44.9321 
20 *90:118 *24088:C1 38.6214 
21 *90:118 *90:133 21.67 
22 *90:133 *90:141 20.8414 
23 *90:141 *90:145 15.6214 
24 *90:145 *24008:A 23 
25 *90:145 *501:DIODE 26.9564 
26 *90:141 *90:159 36.4157 
27 *90:159 *90:163 19.9093 
28 *90:163 *23987:A 26.48 
29 *90:163 *495:DIODE 23 
30 *90:133 *509:DIODE 24.0979 
31 *90:112 *24084:B1 26.0036 
32 *90:8 *515:DIODE 23 
*END

*D_NET *91 0.000281501
*CONN
*I *24078:A2 I *D sky130_fd_sc_hd__a21o_1
*I *23875:Y O *D sky130_fd_sc_hd__inv_2
*CAP
1 *24078:A2 6.02241e-05
2 *23875:Y 6.02241e-05
3 *24078:A2 *23875:A 4.30318e-05
4 *24078:A2 *315:42 0.000118021
*RES
1 *23875:Y *24078:A2 48.0714 
*END

*D_NET *92 0.00134618
*CONN
*I *24079:A2 I *D sky130_fd_sc_hd__a21oi_1
*I *23876:Y O *D sky130_fd_sc_hd__inv_2
*CAP
1 *24079:A2 0.000154244
2 *23876:Y 0.000264218
3 *92:10 0.000418462
4 *92:10 *23876:A 2.30292e-05
5 *92:10 *305:10 0.000166532
6 *92:10 *368:10 1.01436e-05
7 *92:10 *368:21 7.93144e-05
8 *92:10 *368:30 7.48331e-05
9 *90:8 *24079:A2 9.9002e-05
10 *90:10 *24079:A2 4.288e-05
11 *90:14 *24079:A2 1.3523e-05
*RES
1 *23876:Y *92:10 42.785 
2 *92:10 *24079:A2 41.48 
*END

*D_NET *93 0.00140305
*CONN
*I *24284:A I *D sky130_fd_sc_hd__dlygate4sd3_1
*I *23877:Y O *D sky130_fd_sc_hd__inv_2
*CAP
1 *24284:A 0.000130214
2 *23877:Y 6.65706e-05
3 *93:8 0.000196785
4 *24284:A *24073:B1 0.000177731
5 *24284:A *258:22 0.000235687
6 *24284:A *340:6 0.000184415
7 *24284:A *377:6 0.000224605
8 *93:8 *24076:A2 0.000140958
9 *93:8 *309:103 4.23714e-05
10 *58:10 *24284:A 3.7122e-06
*RES
1 *23877:Y *93:8 39.9057 
2 *93:8 *24284:A 43.3857 
*END

*D_NET *94 0.00390324
*CONN
*I *23912:A I *D sky130_fd_sc_hd__xnor2_1
*I *23908:A1 I *D sky130_fd_sc_hd__o21ai_1
*I *24136:A I *D sky130_fd_sc_hd__nand2_1
*I *23878:Y O *D sky130_fd_sc_hd__inv_2
*CAP
1 *23912:A 0
2 *23908:A1 0
3 *24136:A 0
4 *23878:Y 0.000616679
5 *94:26 0.000224957
6 *94:18 0.000459915
7 *94:12 0.000493464
8 *94:8 0.000875185
9 *94:8 *23878:A 3.22879e-05
10 *94:12 *116:14 0.000140671
11 *94:12 *460:12 0.000567659
12 *94:18 *23912:B 0.000236021
13 *94:18 *111:8 8.06804e-06
14 *94:26 *109:12 1.14452e-05
15 *94:26 *110:10 1.02387e-05
16 *94:26 *110:23 6.88819e-05
17 *94:26 *118:34 0.000103637
18 *94:26 *355:101 0
19 *94:26 *355:114 0
20 *94:26 *390:10 5.41288e-05
*RES
1 *23878:Y *94:8 46.2443 
2 *94:8 *94:12 22.54 
3 *94:12 *94:18 4.47429 
4 *94:18 *94:26 35.365 
5 *94:26 *24136:A 23 
6 *94:18 *23908:A1 23 
7 *94:12 *23912:A 23 
*END

*D_NET *95 0.01941
*CONN
*I *23880:A I *D sky130_fd_sc_hd__inv_2
*I *23893:A2 I *D sky130_fd_sc_hd__a21o_1
*I *23891:A2 I *D sky130_fd_sc_hd__a21o_1
*I *23890:C I *D sky130_fd_sc_hd__and3_1
*I *23892:C I *D sky130_fd_sc_hd__and3_1
*I *23889:A2 I *D sky130_fd_sc_hd__a21o_1
*I *23886:C I *D sky130_fd_sc_hd__and3_1
*I *23885:A2 I *D sky130_fd_sc_hd__o22a_1
*I *23881:B I *D sky130_fd_sc_hd__nand2_1
*I *23883:A2 I *D sky130_fd_sc_hd__o22a_1
*I *23879:Y O *D sky130_fd_sc_hd__nor2_4
*CAP
1 *23880:A 0.000123297
2 *23893:A2 0
3 *23891:A2 0.000199223
4 *23890:C 0.00018952
5 *23892:C 0
6 *23889:A2 0
7 *23886:C 0.000153794
8 *23885:A2 0.000133966
9 *23881:B 0
10 *23883:A2 0.000105371
11 *23879:Y 0
12 *95:99 0.000352139
13 *95:79 0.000342322
14 *95:68 0.000152802
15 *95:66 0.000814098
16 *95:55 0.00124882
17 *95:49 0.00112146
18 *95:36 0.00130578
19 *95:23 0.00102721
20 *95:15 0.000727511
21 *95:4 0.000166569
22 *23880:A *304:8 0.000221997
23 *23880:A *400:86 4.07902e-05
24 *23883:A2 *304:8 9.5877e-05
25 *23883:A2 *311:14 9.5877e-05
26 *23885:A2 *23885:A1 3.16784e-05
27 *23886:C *23886:A 9.84794e-05
28 *23890:C *362:202 0.000137425
29 *23891:A2 *23891:B1 0.000126036
30 *23891:A2 *454:14 8.28419e-05
31 *95:15 *304:8 0.000182826
32 *95:15 *311:14 8.52481e-05
33 *95:23 *103:14 0.00021039
34 *95:23 *103:25 0.000244517
35 *95:23 *311:14 0.000112823
36 *95:23 *313:12 0.000446356
37 *95:23 *362:150 6.71514e-05
38 *95:36 *530:DIODE 3.7122e-06
39 *95:36 *23885:A1 4.39607e-05
40 *95:36 *24012:B 0.00030674
41 *95:36 *24021:B1 2.55642e-05
42 *95:36 *204:10 0.000196549
43 *95:36 *313:12 0.000231507
44 *95:36 *362:170 0
45 *95:49 *97:17 0.000748749
46 *95:49 *362:170 0.00210279
47 *95:49 *449:10 0.00051615
48 *95:55 *23886:A 9.41704e-05
49 *95:55 *97:17 0.00120192
50 *95:55 *362:170 0.000507279
51 *95:55 *362:174 2.24608e-05
52 *95:55 *420:21 0.000171906
53 *95:66 *97:17 0.00131845
54 *95:66 *316:8 0
55 *95:66 *362:202 6.7177e-06
56 *95:66 *451:10 0
57 *95:66 *456:10 0.000138727
58 *95:79 *97:23 5.3304e-05
59 *95:79 *362:202 0.000126044
60 *95:79 *452:8 6.85247e-05
61 *95:99 *352:8 0
62 *95:99 *362:202 2.76611e-06
63 *95:99 *455:10 0
64 *95:99 *456:10 0.000240695
65 *41:8 *95:49 0.000114083
66 *50:8 *95:36 0.000141879
67 *89:8 *95:23 0
68 *89:8 *95:36 0
69 *89:28 *95:23 0.000543641
70 *90:118 *95:23 3.75401e-05
71 *90:159 *95:36 0
*RES
1 *23879:Y *95:4 23 
2 *95:4 *23883:A2 25.4236 
3 *95:4 *95:15 2.05071 
4 *95:15 *95:23 32.4621 
5 *95:23 *23881:B 38 
6 *95:23 *95:36 26.8279 
7 *95:36 *23885:A2 24.5743 
8 *95:36 *95:49 43.4096 
9 *95:49 *95:55 31.9132 
10 *95:55 *23886:C 25.1336 
11 *95:55 *95:66 32.7521 
12 *95:66 *95:68 15 
13 *95:68 *23889:A2 23 
14 *95:68 *95:79 3.48 
15 *95:79 *23892:C 23 
16 *95:79 *23890:C 26.2004 
17 *95:66 *95:99 18.3143 
18 *95:99 *23891:A2 27.9921 
19 *95:99 *23893:A2 23 
20 *95:15 *23880:A 26.0243 
*END

*D_NET *96 0.00489924
*CONN
*I *23885:B1 I *D sky130_fd_sc_hd__o22a_1
*I *23883:B1 I *D sky130_fd_sc_hd__o22a_1
*I *23882:A I *D sky130_fd_sc_hd__inv_2
*I *23881:Y O *D sky130_fd_sc_hd__nand2_1
*CAP
1 *23885:B1 0.000385037
2 *23883:B1 0
3 *23882:A 0.000294727
4 *23881:Y 0.000380532
5 *96:10 0.00092444
6 *96:8 0.00139528
7 *23882:A *304:10 0
8 *23882:A *402:10 0
9 *23882:A *448:12 1.14452e-05
10 *23885:B1 *97:17 0
11 *23885:B1 *448:12 8.4047e-05
12 *23885:B1 *450:12 1.14452e-05
13 *96:8 *486:DIODE 1.24376e-05
14 *96:8 *362:154 4.5051e-05
15 *96:10 *448:12 0.0013548
*RES
1 *23881:Y *96:8 42.4329 
2 *96:8 *96:10 17.7521 
3 *96:10 *23882:A 43.7793 
4 *96:10 *23883:B1 38 
5 *96:8 *23885:B1 45.54 
*END

*D_NET *97 0.0146816
*CONN
*I *23889:B1 I *D sky130_fd_sc_hd__a21o_1
*I *23891:B1 I *D sky130_fd_sc_hd__a21o_1
*I *23893:B1 I *D sky130_fd_sc_hd__a21o_1
*I *24092:D1 I *D sky130_fd_sc_hd__a2111oi_1
*I *23887:Y O *D sky130_fd_sc_hd__nor2_2
*CAP
1 *23889:B1 0
2 *23891:B1 0.00019621
3 *23893:B1 0
4 *24092:D1 0
5 *23887:Y 7.23704e-05
6 *97:29 0.000337858
7 *97:23 0.000300743
8 *97:17 0.00227389
9 *97:8 0.00218717
10 *97:8 *448:12 6.53342e-05
11 *97:8 *449:10 0.00019654
12 *97:17 *24165:CLK 0.000385735
13 *97:17 *261:8 0.000171906
14 *97:17 *309:29 0.000455214
15 *97:17 *309:44 0.000447981
16 *97:17 *309:46 0.000631804
17 *97:17 *362:174 1.12487e-05
18 *97:17 *362:185 0.000163065
19 *97:17 *362:202 0.000401577
20 *97:17 *371:8 0
21 *97:17 *448:12 0.000284733
22 *97:17 *449:10 0.00207371
23 *97:17 *450:12 0.00024159
24 *97:23 *452:8 1.8104e-05
25 *97:29 *327:12 0
26 *97:29 *456:10 0.000131878
27 *23885:B1 *97:17 0
28 *23891:A2 *23891:B1 0.000126036
29 *41:8 *97:17 0.000114083
30 *64:8 *97:17 7.03766e-05
31 *95:49 *97:17 0.000748749
32 *95:55 *97:17 0.00120192
33 *95:66 *97:17 0.00131845
34 *95:79 *97:23 5.3304e-05
*RES
1 *23887:Y *97:8 40.61 
2 *97:8 *24092:D1 38 
3 *97:8 *97:17 81.1379 
4 *97:17 *97:23 17.5479 
5 *97:23 *97:29 33.3143 
6 *97:29 *23893:B1 23 
7 *97:29 *23891:B1 26.9979 
8 *97:23 *23889:B1 23 
*END

*D_NET *98 0.0031041
*CONN
*I *24081:B I *D sky130_fd_sc_hd__or3b_1
*I *24078:B1 I *D sky130_fd_sc_hd__a21o_1
*I *23888:X O *D sky130_fd_sc_hd__or2_1
*CAP
1 *24081:B 0
2 *24078:B1 0
3 *23888:X 5.80801e-05
4 *98:20 8.72112e-05
5 *98:14 0.000584608
6 *98:8 0.000555477
7 *98:8 *24205:A 2.02872e-05
8 *98:8 *263:27 5.3304e-05
9 *98:8 *369:8 5.3304e-05
10 *98:14 *24081:C_N 2.30292e-05
11 *98:14 *24173:CLK 6.02277e-06
12 *98:14 *263:14 8.85189e-05
13 *98:14 *263:27 0.000882267
14 *98:14 *307:34 0.00013146
15 *98:14 *332:8 0.000166513
16 *98:20 *263:14 4.69776e-05
17 *98:20 *307:34 0.000277695
18 *98:20 *315:48 6.93449e-05
19 *90:118 *98:14 0
*RES
1 *23888:X *98:8 39.0979 
2 *98:8 *98:14 28.92 
3 *98:14 *98:20 33.6664 
4 *98:20 *24078:B1 23 
5 *98:14 *24081:B 23 
*END

*D_NET *99 0.0129718
*CONN
*I *24096:B I *D sky130_fd_sc_hd__and3_1
*I *23903:B I *D sky130_fd_sc_hd__nand2_1
*I *24100:A2 I *D sky130_fd_sc_hd__a31o_1
*I *23902:B I *D sky130_fd_sc_hd__and2_1
*I *24088:A2 I *D sky130_fd_sc_hd__o211a_1
*I *24092:A1 I *D sky130_fd_sc_hd__a2111oi_1
*I *24080:A1 I *D sky130_fd_sc_hd__a21oi_2
*I *23894:X O *D sky130_fd_sc_hd__and2b_2
*CAP
1 *24096:B 0.00025516
2 *23903:B 0
3 *24100:A2 0
4 *23902:B 0
5 *24088:A2 0
6 *24092:A1 0.000182601
7 *24080:A1 0.00014657
8 *23894:X 0.000471713
9 *99:90 0.000461404
10 *99:75 0.000248384
11 *99:67 0.000888828
12 *99:63 0.000409384
13 *99:59 0.00171515
14 *99:33 0.000182601
15 *99:31 0.00191117
16 *99:14 0.000828088
17 *99:12 0.000471713
18 *24080:A1 *24080:A2 0.00014196
19 *24080:A1 *264:8 0.000123934
20 *24080:A1 *362:33 0.000111508
21 *24080:A1 *362:37 1.01436e-05
22 *24092:A1 *368:110 0.000347205
23 *24096:B *23900:A 6.53505e-05
24 *24096:B *272:10 8.4047e-05
25 *24096:B *307:144 0
26 *24096:B *406:50 7.8399e-05
27 *24096:B *427:45 0.000243596
28 *99:12 *312:28 9.28078e-06
29 *99:12 *423:25 4.15283e-06
30 *99:12 *438:20 7.51431e-06
31 *99:31 *200:44 0.00043368
32 *99:31 *268:10 0.000160191
33 *99:31 *362:33 7.46108e-05
34 *99:59 *23900:A 9.21347e-06
35 *99:59 *200:44 6.10551e-06
36 *99:59 *307:122 6.9995e-05
37 *99:59 *427:45 0.000180939
38 *99:63 *24254:A 0.00023879
39 *99:67 *23903:A 9.84794e-05
40 *99:67 *24254:A 2.9938e-05
41 *99:67 *400:127 8.17328e-05
42 *99:75 *23992:A1 0.000138718
43 *99:75 *104:14 0.000349395
44 *99:75 *104:21 0.000120405
45 *99:75 *104:40 0.000141879
46 *99:75 *105:10 0.000227387
47 *99:90 *24122:A3 0.00013223
48 *99:90 *106:29 0.000111852
49 *99:90 *355:194 0
50 *99:90 *400:127 0.000180218
51 *99:90 *437:23 0.000112906
52 *24088:C1 *24092:A1 5.50049e-05
53 *89:28 *24092:A1 0.000183126
54 *90:118 *24080:A1 3.65271e-05
55 *90:118 *99:31 0.000392263
56 *90:133 *99:59 6.3568e-06
*RES
1 *23894:X *99:12 47.064 
2 *99:12 *99:14 8 
3 *99:14 *24080:A1 42.2568 
4 *99:14 *99:31 16.2296 
5 *99:31 *99:33 15 
6 *99:33 *24092:A1 27.9507 
7 *99:33 *24088:A2 23 
8 *99:31 *99:59 20.9577 
9 *99:59 *99:63 19.9093 
10 *99:63 *99:67 3.50071 
11 *99:67 *99:75 38.5136 
12 *99:75 *23902:B 23 
13 *99:67 *99:90 38.845 
14 *99:90 *24100:A2 23 
15 *99:63 *23903:B 23 
16 *99:59 *24096:B 44.8357 
*END

*D_NET *100 0.00465994
*CONN
*I *24272:A I *D sky130_fd_sc_hd__dlygate4sd3_1
*I *23990:C I *D sky130_fd_sc_hd__or3_1
*I *23896:B I *D sky130_fd_sc_hd__nor2_1
*I *23895:Y O *D sky130_fd_sc_hd__nand2b_1
*CAP
1 *24272:A 0
2 *23990:C 0.000442
3 *23896:B 0.000209369
4 *23895:Y 0.000489845
5 *100:14 0.000903249
6 *100:10 0.000741725
7 *23896:B *101:12 2.45549e-06
8 *23896:B *101:32 9.8971e-06
9 *23896:B *307:20 0.000317553
10 *23990:C *23990:A 0.000268074
11 *23990:C *24150:CLK 0.00014196
12 *23990:C *24150:D 1.74843e-05
13 *23990:C *101:32 6.40287e-05
14 *23990:C *101:51 0.000223331
15 *23990:C *307:20 0.000128723
16 *100:10 *492:DIODE 2.32101e-05
17 *100:10 *24086:B 0.000141052
18 *100:10 *107:14 5.50049e-05
19 *100:10 *307:14 7.66085e-05
20 *100:10 *312:12 0.000228001
21 *100:10 *362:10 0
22 *100:10 *362:14 4.21281e-05
23 *100:14 *24175:CLK 0
24 *100:14 *307:14 0.000134237
25 *100:14 *400:43 0
*RES
1 *23895:Y *100:10 49.2064 
2 *100:10 *100:14 20.4271 
3 *100:14 *23896:B 27.4536 
4 *100:14 *23990:C 34.2686 
5 *100:10 *24272:A 38 
*END

*D_NET *101 0.00931201
*CONN
*I *23897:B I *D sky130_fd_sc_hd__nand2_1
*I *23989:A2 I *D sky130_fd_sc_hd__o211a_1
*I *23901:B2 I *D sky130_fd_sc_hd__a22o_1
*I *23991:A2 I *D sky130_fd_sc_hd__o211a_1
*I *24083:A_N I *D sky130_fd_sc_hd__and3b_1
*I *23896:Y O *D sky130_fd_sc_hd__nor2_1
*CAP
1 *23897:B 0.000250842
2 *23989:A2 5.76084e-05
3 *23901:B2 0
4 *23991:A2 0.000310984
5 *24083:A_N 0.000299125
6 *23896:Y 0
7 *101:51 0.0009639
8 *101:38 0.000448464
9 *101:32 0.0016436
10 *101:12 0.000985741
11 *101:4 0.000915317
12 *23897:B *23989:A1 0.000195238
13 *23897:B *23989:B1 1.47563e-05
14 *23897:B *308:29 0.000244526
15 *23897:B *308:37 0.000209729
16 *23897:B *365:19 0.000282721
17 *23989:A2 *23989:A1 0.00019747
18 *23989:A2 *308:37 0.000195248
19 *23991:A2 *23991:B1 4.37033e-05
20 *24083:A_N *368:44 0.000317706
21 *101:12 *307:28 3.83778e-05
22 *101:12 *368:62 0
23 *101:32 *24150:CLK 5.29672e-05
24 *101:32 *307:20 0.000181931
25 *101:38 *23899:A0 4.9844e-05
26 *101:38 *104:14 1.83667e-05
27 *101:38 *307:14 0
28 *101:38 *373:10 0.000111852
29 *101:38 *374:18 0.000271392
30 *101:38 *400:10 0
31 *101:38 *400:27 0
32 *101:38 *400:37 0
33 *101:38 *400:97 0
34 *101:38 *425:21 3.39231e-05
35 *101:51 *23990:A 1.5769e-05
36 *101:51 *323:10 6.30615e-05
37 *101:51 *481:10 5.50106e-05
38 *23896:B *101:12 2.45549e-06
39 *23896:B *101:32 9.8971e-06
40 *23990:C *101:32 6.40287e-05
41 *23990:C *101:51 0.000223331
42 *60:10 *101:12 0
43 *90:49 *24083:A_N 4.79641e-05
44 *90:56 *23991:A2 0.000118217
45 *90:56 *24083:A_N 0.0001164
46 *90:60 *23991:A2 0.000230604
47 *90:83 *23991:A2 2.9938e-05
*RES
1 *23896:Y *101:4 23 
2 *101:4 *101:12 35.8207 
3 *101:12 *24083:A_N 29.815 
4 *101:12 *23991:A2 31.2857 
5 *101:4 *101:32 8.72071 
6 *101:32 *101:38 39.3007 
7 *101:38 *23901:B2 23 
8 *101:32 *101:51 25.7921 
9 *101:51 *23989:A2 40.61 
10 *101:51 *23897:B 44.4836 
*END

*D_NET *102 0.00266497
*CONN
*I *23899:S I *D sky130_fd_sc_hd__mux2_1
*I *23901:A2 I *D sky130_fd_sc_hd__a22o_1
*I *23897:Y O *D sky130_fd_sc_hd__nand2_1
*CAP
1 *23899:S 0
2 *23901:A2 0
3 *23897:Y 0.000481271
4 *102:25 7.87325e-05
5 *102:14 0.000255176
6 *102:6 0.00081518
7 *102:6 *24080:A2 5.50106e-05
8 *102:6 *24151:D 7.10068e-06
9 *102:6 *189:10 5.24891e-05
10 *102:6 *194:16 8.82787e-05
11 *102:6 *308:25 4.67488e-05
12 *102:14 *23899:A0 0.000271392
13 *102:14 *24080:A2 0.000178517
14 *102:14 *400:27 2.71291e-05
15 *102:14 *437:23 2.19643e-05
16 *102:14 *480:8 0.00014411
17 *102:25 *364:29 0
18 *102:25 *437:23 0.000141869
*RES
1 *23897:Y *102:6 29.815 
2 *102:6 *102:14 35.7171 
3 *102:14 *23901:A2 23 
4 *102:6 *102:25 31.9057 
5 *102:25 *23899:S 23 
*END

*D_NET *103 0.0102617
*CONN
*I *23997:B I *D sky130_fd_sc_hd__nand2_1
*I *23995:A1 I *D sky130_fd_sc_hd__o21ai_1
*I *23899:A0 I *D sky130_fd_sc_hd__mux2_1
*I *24090:B I *D sky130_fd_sc_hd__or3_1
*I *24092:A2 I *D sky130_fd_sc_hd__a2111oi_1
*I *23898:X O *D sky130_fd_sc_hd__and2_1
*CAP
1 *23997:B 0
2 *23995:A1 0.000110976
3 *23899:A0 0.000422319
4 *24090:B 0
5 *24092:A2 0
6 *23898:X 0
7 *103:53 0.000459613
8 *103:36 0.00115649
9 *103:27 0.00166641
10 *103:25 0.00157953
11 *103:14 0.000247375
12 *103:4 0.00054602
13 *23899:A0 *104:14 0
14 *23899:A0 *374:18 0.000131169
15 *23899:A0 *400:27 5.19255e-05
16 *23899:A0 *437:23 0
17 *23995:A1 *192:23 7.67248e-05
18 *103:14 *311:14 8.62783e-05
19 *103:14 *362:130 4.9662e-05
20 *103:14 *362:150 6.32792e-05
21 *103:25 *311:14 3.95159e-06
22 *103:25 *423:59 0.000210945
23 *103:25 *449:10 0
24 *103:27 *24006:B 0.000230776
25 *103:27 *24091:B1 8.85299e-06
26 *103:27 *192:12 2.65879e-05
27 *103:27 *270:8 0.000176557
28 *103:27 *423:51 1.71017e-05
29 *103:27 *423:59 0.000103043
30 *103:36 *192:12 1.14762e-05
31 *103:36 *192:23 6.68677e-05
32 *103:36 *425:21 9.62666e-05
33 *103:53 *104:14 0
34 *103:53 *192:23 0.000873844
35 *103:53 *194:16 0.00014255
36 *103:53 *437:23 0
37 *24277:A *103:27 9.76261e-05
38 *89:28 *103:14 3.50723e-05
39 *89:88 *23995:A1 5.90132e-05
40 *89:96 *23995:A1 0.00018277
41 *89:113 *23995:A1 0.000100399
42 *90:118 *103:25 0.000394042
43 *95:23 *103:14 0.00021039
44 *95:23 *103:25 0.000244517
45 *101:38 *23899:A0 4.9844e-05
46 *102:14 *23899:A0 0.000271392
*RES
1 *23898:X *103:4 23 
2 *103:4 *103:14 34.6814 
3 *103:14 *24092:A2 23 
4 *103:4 *103:25 40.3571 
5 *103:25 *103:27 18.2493 
6 *103:27 *24090:B 23 
7 *103:27 *103:36 20.3857 
8 *103:36 *23899:A0 46.99 
9 *103:36 *103:53 25.875 
10 *103:53 *23995:A1 27.1843 
11 *103:53 *23997:B 23 
*END

*D_NET *104 0.00774591
*CONN
*I *24001:B I *D sky130_fd_sc_hd__nand2_1
*I *24094:A I *D sky130_fd_sc_hd__nor2_1
*I *23992:B1 I *D sky130_fd_sc_hd__a21oi_1
*I *23901:B1 I *D sky130_fd_sc_hd__a22o_1
*I *23900:Y O *D sky130_fd_sc_hd__nor2_1
*CAP
1 *24001:B 0
2 *24094:A 0
3 *23992:B1 0
4 *23901:B1 0
5 *23900:Y 0.000565873
6 *104:50 0.000332781
7 *104:40 0.000894852
8 *104:21 0.00058289
9 *104:14 0.000627723
10 *104:8 0.00121442
11 *104:8 *307:103 6.68822e-05
12 *104:8 *307:105 0.000198206
13 *104:14 *105:10 2.96805e-05
14 *104:14 *374:18 5.50106e-05
15 *104:14 *400:97 0.000277666
16 *104:14 *400:110 0.000349395
17 *104:14 *425:21 0.0002499
18 *104:14 *437:23 0
19 *104:21 *400:110 0.000110262
20 *104:40 *23992:A1 3.97399e-05
21 *104:40 *24001:A 5.50106e-05
22 *104:40 *24002:C1 6.9805e-05
23 *104:40 *105:10 0.000106178
24 *104:40 *312:39 0
25 *104:40 *400:110 0.000155068
26 *104:40 *400:135 0.000139657
27 *104:40 *406:27 4.60263e-05
28 *104:50 *106:12 1.59312e-05
29 *104:50 *271:10 1.01436e-05
30 *104:50 *307:144 0
31 *104:50 *307:150 5.50049e-05
32 *104:50 *395:6 5.50049e-05
33 *104:50 *406:50 0.000141869
34 *23899:A0 *104:14 0
35 *70:10 *104:40 0.000138718
36 *89:35 *104:40 0.000139352
37 *89:35 *104:50 0.000243083
38 *89:39 *104:40 9.48381e-06
39 *89:61 *104:40 0.000140259
40 *99:75 *104:14 0.000349395
41 *99:75 *104:21 0.000120405
42 *99:75 *104:40 0.000141879
43 *101:38 *104:14 1.83667e-05
44 *103:53 *104:14 0
*RES
1 *23900:Y *104:8 45.7679 
2 *104:8 *104:14 30.9293 
3 *104:14 *23901:B1 23 
4 *104:8 *104:21 1.55357 
5 *104:21 *23992:B1 38 
6 *104:21 *104:40 29.9764 
7 *104:40 *104:50 38.1407 
8 *104:50 *24094:A 23 
9 *104:40 *24001:B 23 
*END

*D_NET *105 0.0188897
*CONN
*I *24220:A I *D sky130_fd_sc_hd__dlymetal6s2s_1
*I *24071:A2 I *D sky130_fd_sc_hd__o211a_1
*I *24222:A I *D sky130_fd_sc_hd__buf_2
*I *24219:A I *D sky130_fd_sc_hd__buf_2
*I *23902:X O *D sky130_fd_sc_hd__and2_1
*CAP
1 *24220:A 0.000123728
2 *24071:A2 0.000149185
3 *24222:A 0
4 *24219:A 0
5 *23902:X 0
6 *105:59 0.00183766
7 *105:42 0.00213188
8 *105:40 0.00221269
9 *105:27 0.000285908
10 *105:23 0.000970016
11 *105:12 0.000914102
12 *105:10 0.000922893
13 *105:4 0.00263682
14 *24071:A2 *252:8 0.000119486
15 *105:10 *23992:A1 0.000215791
16 *105:10 *107:25 0.000101339
17 *105:10 *107:44 4.10714e-05
18 *105:10 *357:10 0.000108569
19 *105:10 *357:27 0.000694002
20 *105:10 *385:10 0.000167443
21 *105:10 *400:127 1.22906e-05
22 *105:10 *406:27 0.000108681
23 *105:10 *437:23 0
24 *105:10 *444:19 0
25 *105:23 *23969:A1 5.97612e-05
26 *105:23 *24104:A2 6.42902e-05
27 *105:23 *353:86 2.8241e-05
28 *105:23 *360:159 2.60152e-05
29 *105:23 *363:14 0
30 *105:23 *363:34 0
31 *105:23 *365:59 0.000182826
32 *105:23 *384:19 4.6318e-06
33 *105:23 *384:30 0.000223583
34 *105:23 *385:10 1.94812e-05
35 *105:23 *386:26 0.000384805
36 *105:23 *444:19 0.000194459
37 *105:23 *444:30 0.000101657
38 *105:23 *444:56 0.000123439
39 *105:23 *447:10 0
40 *105:27 *24221:A 0.000139357
41 *105:27 *360:16 2.93845e-05
42 *105:27 *360:138 2.93747e-05
43 *105:40 *24102:A 0.000184527
44 *105:40 *24102:B 6.09235e-05
45 *105:40 *24221:A 0.000108993
46 *105:40 *178:23 0.000185428
47 *105:40 *361:23 0.000632183
48 *105:42 *503:DIODE 0
49 *105:42 *24034:B 0
50 *105:42 *24064:A3 1.00765e-05
51 *105:42 *24069:B 0
52 *105:42 *224:8 0
53 *105:42 *224:21 0
54 *105:42 *224:32 0
55 *105:42 *224:47 0
56 *105:42 *252:16 0.00042646
57 *105:42 *254:10 1.02387e-05
58 *105:42 *257:10 8.92944e-05
59 *105:42 *276:10 4.23817e-05
60 *105:42 *328:10 0.000246748
61 *105:42 *355:239 5.94125e-05
62 *105:42 *361:23 0
63 *105:42 *361:57 0
64 *105:42 *363:107 0
65 *105:42 *388:14 0.000394564
66 *105:42 *475:75 9.70251e-05
67 *105:59 *24158:CLK 0.000173315
68 *105:59 *24161:CLK 7.27182e-05
69 *105:59 *24161:D 4.9054e-06
70 *105:59 *195:10 0.000163343
71 *105:59 *355:67 0
72 *105:59 *359:36 0
73 *105:59 *439:10 4.56802e-05
74 *24158:D *105:59 1.86404e-05
75 *45:10 *105:59 0
76 *70:10 *105:10 6.78463e-05
77 *71:8 *105:23 6.6869e-05
78 *89:80 *105:59 0
79 *99:75 *105:10 0.000227387
80 *104:14 *105:10 2.96805e-05
81 *104:40 *105:10 0.000106178
*RES
1 *23902:X *105:4 23 
2 *105:4 *105:10 39.36 
3 *105:10 *105:12 15 
4 *105:12 *24219:A 23 
5 *105:12 *105:23 37.5164 
6 *105:23 *105:27 16.5743 
7 *105:27 *24222:A 23 
8 *105:27 *105:40 23.8864 
9 *105:40 *105:42 39.585 
10 *105:42 *24071:A2 41.0243 
11 *105:4 *105:59 38.925 
12 *105:59 *24220:A 40.0507 
*END

*D_NET *106 0.010892
*CONN
*I *24217:A I *D sky130_fd_sc_hd__clkbuf_4
*I *24218:A I *D sky130_fd_sc_hd__buf_2
*I *23903:Y O *D sky130_fd_sc_hd__nand2_1
*CAP
1 *24217:A 0
2 *24218:A 0
3 *23903:Y 0
4 *106:29 0.000859893
5 *106:16 0.000712503
6 *106:12 0.00222084
7 *106:4 0.00236823
8 *106:12 *23900:A 7.03766e-05
9 *106:12 *24010:A 6.21538e-05
10 *106:12 *24093:A1 2.79004e-05
11 *106:12 *24181:CLK 0
12 *106:12 *24216:A 6.7177e-06
13 *106:12 *24254:A 0.000695805
14 *106:12 *201:10 0.000243728
15 *106:12 *271:10 0
16 *106:12 *325:8 0
17 *106:12 *406:50 0.00029764
18 *106:12 *411:12 0
19 *106:12 *446:42 0.000296721
20 *106:16 *24021:A1 0
21 *106:16 *24022:A2 0.000139647
22 *106:16 *24024:B 0
23 *106:16 *24028:B1 1.34354e-05
24 *106:16 *24033:A2 0.000123919
25 *106:16 *205:8 8.62783e-05
26 *106:16 *205:19 0.000145969
27 *106:16 *210:10 0
28 *106:16 *213:14 0.00021928
29 *106:16 *217:12 1.76693e-05
30 *106:16 *219:27 0.000351599
31 *106:16 *223:8 0.000171906
32 *106:16 *345:12 0
33 *106:16 *363:52 0.000807947
34 *106:16 *387:8 7.76364e-06
35 *106:16 *411:12 0
36 *106:16 *446:42 0
37 *106:29 *23903:A 1.40958e-05
38 *106:29 *24254:A 8.6949e-05
39 *106:29 *355:40 0
40 *106:29 *355:51 0
41 *106:29 *400:127 4.2062e-05
42 *106:29 *406:8 0.000135037
43 *106:29 *406:64 0.000306338
44 *106:29 *437:23 0.000118393
45 *106:29 *439:10 6.60367e-05
46 *106:29 *439:25 4.73689e-05
47 *99:90 *106:29 0.000111852
48 *104:50 *106:12 1.59312e-05
*RES
1 *23903:Y *106:4 23 
2 *106:4 *106:12 47.6043 
3 *106:12 *106:16 35.5693 
4 *106:16 *24218:A 23 
5 *106:4 *106:29 44.6036 
6 *106:29 *24217:A 23 
*END

*D_NET *107 0.023052
*CONN
*I *23947:B1 I *D sky130_fd_sc_hd__o21a_1
*I *24146:C1 I *D sky130_fd_sc_hd__o211a_1
*I *24147:B1 I *D sky130_fd_sc_hd__o21ai_1
*I *24149:A I *D sky130_fd_sc_hd__and3_1
*I *24143:A I *D sky130_fd_sc_hd__and3_1
*I *24142:C I *D sky130_fd_sc_hd__and3_1
*I *24086:A I *D sky130_fd_sc_hd__and2_1
*I *23904:Y O *D sky130_fd_sc_hd__nor2_2
*CAP
1 *23947:B1 0.00100847
2 *24146:C1 0
3 *24147:B1 0
4 *24149:A 1.12438e-05
5 *24143:A 0
6 *24142:C 8.53237e-06
7 *24086:A 0
8 *23904:Y 0
9 *107:110 0.00266576
10 *107:90 0.000312493
11 *107:73 0.00122733
12 *107:61 0.00126364
13 *107:59 0.00222639
14 *107:50 0.000370611
15 *107:44 0.00181912
16 *107:25 0.00239681
17 *107:14 0.000631123
18 *107:4 0.00136185
19 *23947:B1 *24236:A 0.000227208
20 *24142:C *191:10 1.95448e-05
21 *24142:C *432:14 1.95448e-05
22 *24149:A *24149:C 5.50106e-05
23 *24149:A *398:48 6.17437e-06
24 *107:14 *494:DIODE 0.000114083
25 *107:14 *23898:A 1.94812e-05
26 *107:14 *192:8 0
27 *107:14 *312:12 0.000315259
28 *107:14 *362:10 8.72173e-05
29 *107:14 *368:80 0
30 *107:25 *23898:A 7.06229e-05
31 *107:25 *306:28 2.74884e-05
32 *107:25 *307:8 5.3304e-05
33 *107:25 *355:14 0.0001493
34 *107:25 *365:27 8.62783e-05
35 *107:25 *427:23 0.000441059
36 *107:25 *437:23 5.00432e-05
37 *107:44 *24124:B 0.000139346
38 *107:44 *24199:CLK 0.000482782
39 *107:44 *24264:A 0.000100069
40 *107:44 *162:18 0.000297758
41 *107:44 *191:10 6.68793e-05
42 *107:44 *308:162 0.000228909
43 *107:44 *393:16 2.80512e-05
44 *107:44 *400:127 0.000187986
45 *107:44 *437:23 0.000155093
46 *107:50 *23940:B 2.96051e-05
47 *107:50 *139:23 0.000185755
48 *107:50 *359:36 0
49 *107:59 *24143:C 5.50049e-05
50 *107:59 *355:101 0.000151709
51 *107:61 *129:8 0
52 *107:61 *301:8 1.14452e-05
53 *107:61 *398:10 7.80354e-05
54 *107:61 *398:76 0.00024563
55 *107:61 *432:41 0.000274534
56 *107:61 *432:45 0.000425799
57 *107:73 *24144:A2 2.34364e-05
58 *107:73 *24144:B2 9.29333e-05
59 *107:73 *24149:B 9.84851e-05
60 *107:73 *24200:CLK 2.60152e-05
61 *107:73 *128:8 0.000140958
62 *107:73 *194:56 0
63 *107:73 *301:8 0.000140958
64 *107:73 *398:35 8.48502e-06
65 *107:73 *398:48 0.00022109
66 *107:73 *432:45 1.14452e-05
67 *107:73 *434:42 0.00011519
68 *107:73 *434:63 0.00017282
69 *107:90 *24147:A1 0.000228909
70 *107:90 *24147:A2 0.000131304
71 *107:90 *24149:B 9.24795e-06
72 *107:90 *24149:C 6.21121e-05
73 *107:90 *303:6 6.9805e-05
74 *107:90 *326:33 0.000187996
75 *107:110 *24266:A 0.000244691
76 *107:110 *129:8 0
77 *107:110 *129:19 0
78 *107:110 *129:49 0
79 *107:110 *139:23 0
80 *107:110 *141:23 2.36844e-05
81 *107:110 *289:10 0
82 *107:110 *343:25 0
83 *107:110 *418:23 0
84 *107:110 *445:25 0.000303726
85 *107:110 *458:10 0.000197001
86 *107:110 *465:8 0
87 *24199:D *107:44 4.9054e-06
88 *24247:A *107:90 9.5877e-05
89 *24317:A *107:110 0
90 *40:8 *23947:B1 5.41385e-05
91 *88:10 *107:73 0
92 *100:10 *107:14 5.50049e-05
93 *105:10 *107:25 0.000101339
94 *105:10 *107:44 4.10714e-05
*RES
1 *23904:Y *107:4 23 
2 *107:4 *107:14 42.3043 
3 *107:14 *24086:A 23 
4 *107:4 *107:25 30.5979 
5 *107:25 *24142:C 38.2279 
6 *107:25 *107:44 45.2843 
7 *107:44 *107:50 32.61 
8 *107:50 *24143:A 23 
9 *107:50 *107:59 19.4329 
10 *107:59 *107:61 11.0614 
11 *107:61 *107:73 32.0893 
12 *107:73 *24149:A 23.6214 
13 *107:73 *107:90 38.1407 
14 *107:90 *24147:B1 23 
15 *107:61 *24146:C1 38 
16 *107:59 *107:110 47.6043 
17 *107:110 *23947:B1 41.2493 
*END

*D_NET *108 0.00276265
*CONN
*I *23906:B1_N I *D sky130_fd_sc_hd__a21bo_1
*I *24147:A1 I *D sky130_fd_sc_hd__o21ai_1
*I *24149:B I *D sky130_fd_sc_hd__and3_1
*I *24145:A I *D sky130_fd_sc_hd__nand2_1
*I *23905:X O *D sky130_fd_sc_hd__and2_1
*CAP
1 *23906:B1_N 0.000135879
2 *24147:A1 0.00015571
3 *24149:B 9.89461e-05
4 *24145:A 0.000105419
5 *23905:X 0
6 *108:28 0.000359454
7 *108:8 0.000255095
8 *108:6 0.000118595
9 *23906:B1_N *302:10 1.22803e-05
10 *23906:B1_N *326:33 0
11 *23906:B1_N *364:95 1.17152e-05
12 *23906:B1_N *366:88 6.22372e-05
13 *23906:B1_N *441:25 1.01436e-05
14 *24145:A *24145:B 8.85189e-05
15 *24145:A *117:21 8.85189e-05
16 *24145:A *326:33 0
17 *24147:A1 *24148:A1 2.64616e-05
18 *24147:A1 *303:6 0.000353209
19 *24147:A1 *398:63 2.18506e-05
20 *108:8 *117:21 0.000104869
21 *108:8 *398:48 6.48142e-05
22 *108:28 *24148:A2 0.000141879
23 *108:28 *117:21 2.55642e-05
24 *108:28 *398:48 0.000110913
25 *24247:A *24149:B 5.37348e-06
26 *87:10 *23906:B1_N 2.22183e-05
27 *87:10 *24147:A1 2.93747e-05
28 *87:10 *108:28 1.69668e-05
29 *107:73 *24149:B 9.84851e-05
30 *107:90 *24147:A1 0.000228909
31 *107:90 *24149:B 9.24795e-06
*RES
1 *23905:X *108:6 38 
2 *108:6 *108:8 1.55357 
3 *108:8 *24145:A 40.2579 
4 *108:8 *24149:B 39.5743 
5 *108:6 *108:28 2.25786 
6 *108:28 *24147:A1 42.9093 
7 *108:28 *23906:B1_N 40.9621 
*END

*D_NET *109 0.00233015
*CONN
*I *23912:B I *D sky130_fd_sc_hd__xnor2_1
*I *23908:A2 I *D sky130_fd_sc_hd__o21ai_1
*I *23906:X O *D sky130_fd_sc_hd__a21bo_1
*CAP
1 *23912:B 0.000101847
2 *23908:A2 0
3 *23906:X 0.000403991
4 *109:12 0.000502701
5 *109:8 0.000804845
6 *23912:B *111:8 6.69899e-05
7 *109:8 *326:46 7.88828e-05
8 *109:12 *110:10 0.000123428
9 *109:12 *326:46 0
10 *109:12 *398:63 0
11 *109:12 *460:12 0
12 *94:18 *23912:B 0.000236021
13 *94:26 *109:12 1.14452e-05
*RES
1 *23906:X *109:8 43.3857 
2 *109:8 *109:12 22.54 
3 *109:12 *23908:A2 23 
4 *109:12 *23912:B 26.0243 
*END

*D_NET *110 0.00241563
*CONN
*I *23916:A I *D sky130_fd_sc_hd__nand3_1
*I *23917:A1 I *D sky130_fd_sc_hd__a21o_1
*I *23908:B1 I *D sky130_fd_sc_hd__o21ai_1
*I *23907:Y O *D sky130_fd_sc_hd__nand4_1
*CAP
1 *23916:A 8.18995e-05
2 *23917:A1 0
3 *23908:B1 0
4 *23907:Y 0.000283049
5 *110:23 0.000344002
6 *110:10 0.000545152
7 *23916:A *23916:B 4.60409e-05
8 *23916:A *116:14 4.08664e-05
9 *110:10 *116:8 0.000399297
10 *110:10 *460:12 9.00646e-05
11 *110:23 *23917:B1 2.32004e-05
12 *110:23 *111:14 0
13 *110:23 *116:14 5.3304e-05
14 *110:23 *118:34 5.98147e-05
15 *110:23 *120:10 0.00010018
16 *110:23 *355:118 0
17 *110:23 *390:10 5.50106e-05
18 *110:23 *460:12 9.11983e-05
19 *94:26 *110:10 1.02387e-05
20 *94:26 *110:23 6.88819e-05
21 *109:12 *110:10 0.000123428
*RES
1 *23907:Y *110:10 46.0993 
2 *110:10 *23908:B1 38 
3 *110:10 *110:23 21.7943 
4 *110:23 *23917:A1 23 
5 *110:23 *23916:A 24.595 
*END

*D_NET *111 0.0063854
*CONN
*I *23909:B I *D sky130_fd_sc_hd__and2_1
*I *23910:B I *D sky130_fd_sc_hd__nor2_1
*I *23908:Y O *D sky130_fd_sc_hd__o21ai_1
*CAP
1 *23909:B 0.000159218
2 *23910:B 2.32701e-05
3 *23908:Y 0.000315187
4 *111:14 0.00116836
5 *111:8 0.00130105
6 *23909:B *23946:A2 5.33597e-05
7 *23909:B *23947:A2 0.0002263
8 *23909:B *123:10 0.000191157
9 *23909:B *298:10 6.7177e-06
10 *23909:B *318:23 9.84794e-05
11 *23909:B *318:36 0.000304291
12 *23910:B *24138:A 5.3304e-05
13 *23910:B *24138:B 5.3304e-05
14 *111:14 *23922:A 0.000126343
15 *111:14 *23923:A2 0.000129412
16 *111:14 *23933:A 0
17 *111:14 *24134:B 0.000112087
18 *111:14 *115:8 0.0010118
19 *111:14 *116:14 0.000161121
20 *111:14 *120:10 6.4393e-05
21 *111:14 *121:8 0
22 *111:14 *123:10 0.000539748
23 *111:14 *135:8 5.26204e-05
24 *111:14 *135:19 1.80023e-05
25 *111:14 *146:21 4.08537e-05
26 *111:14 *295:8 8.85189e-05
27 *111:14 *318:36 1.14452e-05
28 *111:14 *390:36 0
29 *23912:B *111:8 6.69899e-05
30 *82:8 *111:14 0
31 *94:18 *111:8 8.06804e-06
32 *110:23 *111:14 0
*RES
1 *23908:Y *111:8 41.9564 
2 *111:8 *111:14 28.0264 
3 *111:14 *23910:B 38.6214 
4 *111:14 *23909:B 43.8414 
*END

*D_NET *112 0.00185265
*CONN
*I *23946:B1_N I *D sky130_fd_sc_hd__o21bai_1
*I *23911:A I *D sky130_fd_sc_hd__or2_1
*I *23909:X O *D sky130_fd_sc_hd__and2_1
*CAP
1 *23946:B1_N 0
2 *23911:A 0
3 *23909:X 0
4 *112:27 0.000262162
5 *112:14 0.000232217
6 *112:4 0.000494379
7 *112:14 *23947:A2 5.3304e-05
8 *112:14 *114:10 2.64616e-05
9 *112:14 *298:10 0
10 *112:14 *318:23 8.62783e-05
11 *112:14 *318:36 0
12 *112:27 *23946:A2 7.03766e-05
13 *112:27 *23947:A2 0.000254735
14 *112:27 *298:10 7.03766e-05
15 *82:8 *112:14 0.000302358
*RES
1 *23909:X *112:4 23 
2 *112:4 *112:14 35.2614 
3 *112:14 *23911:A 23 
4 *112:4 *112:27 34.9093 
5 *112:27 *23946:B1_N 23 
*END

*D_NET *113 0.00312706
*CONN
*I *23946:A1 I *D sky130_fd_sc_hd__o21bai_1
*I *23911:B I *D sky130_fd_sc_hd__or2_1
*I *23910:Y O *D sky130_fd_sc_hd__nor2_1
*CAP
1 *23946:A1 0.000280012
2 *23911:B 0.000499803
3 *23910:Y 0.000194742
4 *113:8 0.000974557
5 *23911:B *23945:B 0.000118174
6 *23911:B *24138:B 0.000401593
7 *23911:B *114:10 3.98818e-05
8 *23911:B *147:21 3.47781e-05
9 *23946:A1 *23945:A 5.36646e-05
10 *23946:A1 *23945:B 0.000344635
11 *23946:A1 *148:6 5.67058e-05
12 *23946:A1 *298:10 0
13 *113:8 *24138:A 2.18409e-05
14 *113:8 *24138:B 9.88574e-06
15 *113:8 *114:10 9.67842e-05
*RES
1 *23910:Y *113:8 40.5271 
2 *113:8 *23911:B 46.7414 
3 *113:8 *23946:A1 44.67 
*END

*D_NET *114 0.00183899
*CONN
*I *23921:A I *D sky130_fd_sc_hd__xnor2_1
*I *23911:X O *D sky130_fd_sc_hd__or2_1
*CAP
1 *23921:A 4.9626e-05
2 *23911:X 0.000388143
3 *114:10 0.000437769
4 *23921:A *23921:B 5.50106e-05
5 *23921:A *23947:A2 5.50106e-05
6 *114:10 *23945:A 8.11552e-05
7 *114:10 *23946:A2 2.96051e-05
8 *114:10 *24138:A 0.000333707
9 *114:10 *24138:B 3.53115e-05
10 *114:10 *123:10 6.6869e-05
11 *114:10 *298:10 0.000143655
12 *23911:B *114:10 3.98818e-05
13 *112:14 *114:10 2.64616e-05
14 *113:8 *114:10 9.67842e-05
*RES
1 *23911:X *114:10 47.425 
2 *114:10 *23921:A 39.0979 
*END

*D_NET *115 0.00374551
*CONN
*I *23922:A I *D sky130_fd_sc_hd__xnor2_1
*I *23920:A I *D sky130_fd_sc_hd__or2_1
*I *23912:Y O *D sky130_fd_sc_hd__xnor2_1
*CAP
1 *23922:A 0.000382125
2 *23920:A 0
3 *23912:Y 0
4 *115:8 0.000854532
5 *115:6 0.000472407
6 *23922:A *23922:B 2.23858e-05
7 *23922:A *24135:B1 0.000112087
8 *23922:A *122:10 1.83564e-05
9 *23922:A *123:10 8.4047e-05
10 *115:8 *23919:A 0.000153218
11 *115:8 *116:14 1.37246e-05
12 *115:8 *119:8 0.000114083
13 *115:8 *119:19 0.000296286
14 *115:8 *122:10 8.41115e-05
15 *111:14 *23922:A 0.000126343
16 *111:14 *115:8 0.0010118
*RES
1 *23912:Y *115:6 38 
2 *115:6 *115:8 13.8786 
3 *115:8 *23920:A 38 
4 *115:8 *23922:A 44.235 
*END

*D_NET *116 0.00325987
*CONN
*I *23917:A2 I *D sky130_fd_sc_hd__a21o_1
*I *23916:B I *D sky130_fd_sc_hd__nand3_1
*I *23913:X O *D sky130_fd_sc_hd__a22o_1
*CAP
1 *23917:A2 0
2 *23916:B 4.55701e-05
3 *23913:X 0.000655732
4 *116:14 0.000401135
5 *116:8 0.0010113
6 *23916:B *23916:C 0.000118737
7 *23916:B *23917:B1 1.56273e-05
8 *116:8 *23907:C 1.32939e-05
9 *116:8 *23907:D 3.22879e-05
10 *116:14 *23916:C 3.44001e-05
11 *116:14 *23917:B1 1.24376e-05
12 *116:14 *460:12 6.43253e-05
13 *23916:A *23916:B 4.60409e-05
14 *23916:A *116:14 4.08664e-05
15 *94:12 *116:14 0.000140671
16 *110:10 *116:8 0.000399297
17 *110:23 *116:14 5.3304e-05
18 *111:14 *116:14 0.000161121
19 *115:8 *116:14 1.37246e-05
*RES
1 *23913:X *116:8 47.1971 
2 *116:8 *116:14 22.9336 
3 *116:14 *23916:B 25.0921 
4 *116:14 *23917:A2 23 
*END

*D_NET *117 0.00195804
*CONN
*I *24148:A2 I *D sky130_fd_sc_hd__a21oi_1
*I *24149:C I *D sky130_fd_sc_hd__and3_1
*I *24145:B I *D sky130_fd_sc_hd__nand2_1
*I *23914:X O *D sky130_fd_sc_hd__and2_1
*CAP
1 *24148:A2 4.24283e-05
2 *24149:C 0.000171204
3 *24145:B 0.000151575
4 *23914:X 0
5 *117:21 0.000291486
6 *117:6 0.000229429
7 *24145:B *302:10 3.70187e-05
8 *24145:B *308:86 9.0308e-05
9 *24145:B *326:33 0
10 *24145:B *366:75 1.44813e-05
11 *24145:B *367:25 0
12 *24148:A2 *302:10 0.000132665
13 *24149:C *398:48 2.43944e-05
14 *117:21 *302:10 0.000206577
15 *24145:A *24145:B 8.85189e-05
16 *24145:A *117:21 8.85189e-05
17 *24149:A *24149:C 5.50106e-05
18 *107:90 *24149:C 6.21121e-05
19 *108:8 *117:21 0.000104869
20 *108:28 *24148:A2 0.000141879
21 *108:28 *117:21 2.55642e-05
*RES
1 *23914:X *117:6 38 
2 *117:6 *24145:B 41.625 
3 *117:6 *117:21 2.96214 
4 *117:21 *24149:C 40.1336 
5 *117:21 *24148:A2 39.9057 
*END

*D_NET *118 0.00355836
*CONN
*I *23916:C I *D sky130_fd_sc_hd__nand3_1
*I *23917:B1 I *D sky130_fd_sc_hd__a21o_1
*I *23929:A1 I *D sky130_fd_sc_hd__o21ai_1
*I *23928:A I *D sky130_fd_sc_hd__or3_1
*I *23915:X O *D sky130_fd_sc_hd__and4_1
*CAP
1 *23916:C 0.000191997
2 *23917:B1 4.85011e-05
3 *23929:A1 0
4 *23928:A 0.000135406
5 *23915:X 6.56259e-05
6 *118:34 0.000973403
7 *118:27 0.000152942
8 *118:21 0.000956495
9 *118:10 0.000206054
10 *118:8 6.56259e-05
11 *23928:A *129:23 2.93747e-05
12 *23928:A *129:38 2.02872e-05
13 *118:8 *459:10 0.000114083
14 *118:27 *23929:A2 0
15 *118:27 *129:38 4.31263e-05
16 *118:27 *396:8 0
17 *118:27 *396:25 3.70187e-05
18 *118:27 *459:10 9.21347e-06
19 *118:34 *355:114 5.41385e-05
20 *118:34 *390:10 3.22118e-05
21 *118:34 *460:12 5.50049e-05
22 *23916:B *23916:C 0.000118737
23 *23916:B *23917:B1 1.56273e-05
24 *94:26 *118:34 0.000103637
25 *110:23 *23917:B1 2.32004e-05
26 *110:23 *118:34 5.98147e-05
27 *116:14 *23916:C 3.44001e-05
28 *116:14 *23917:B1 1.24376e-05
*RES
1 *23915:X *118:8 39.5536 
2 *118:8 *118:10 15 
3 *118:10 *23928:A 25.0714 
4 *118:10 *118:21 1.09786 
5 *118:21 *118:27 33.3143 
6 *118:27 *23929:A1 23 
7 *118:21 *118:34 13.485 
8 *118:34 *23917:B1 24.6157 
9 *118:34 *23916:C 26.8529 
*END

*D_NET *119 0.00211386
*CONN
*I *23919:A I *D sky130_fd_sc_hd__and2_1
*I *23923:A1 I *D sky130_fd_sc_hd__a21o_1
*I *23918:B I *D sky130_fd_sc_hd__nand3_1
*I *23916:Y O *D sky130_fd_sc_hd__nand3_1
*CAP
1 *23919:A 0.000107762
2 *23923:A1 0.000190426
3 *23918:B 0.000239773
4 *23916:Y 6.90834e-05
5 *119:19 0.000438778
6 *119:8 0.000449447
7 *23918:B *23918:C 5.50049e-05
8 *115:8 *23919:A 0.000153218
9 *115:8 *119:8 0.000114083
10 *115:8 *119:19 0.000296286
*RES
1 *23916:Y *119:8 39.5536 
2 *119:8 *23918:B 41.48 
3 *119:8 *119:19 4.01857 
4 *119:19 *23923:A1 40.5271 
5 *119:19 *23919:A 40.2579 
*END

*D_NET *120 0.00100471
*CONN
*I *23923:A2 I *D sky130_fd_sc_hd__a21o_1
*I *23918:C I *D sky130_fd_sc_hd__nand3_1
*I *23917:X O *D sky130_fd_sc_hd__a21o_1
*CAP
1 *23923:A2 9.10193e-05
2 *23918:C 2.79296e-05
3 *23917:X 0.000165108
4 *120:10 0.000284057
5 *23923:A2 *121:8 8.76088e-05
6 *23923:A2 *390:19 0
7 *120:10 *390:10 0
8 *120:10 *390:19 0
9 *23918:B *23918:C 5.50049e-05
10 *110:23 *120:10 0.00010018
11 *111:14 *23923:A2 0.000129412
12 *111:14 *120:10 6.4393e-05
*RES
1 *23917:X *120:10 41.0036 
2 *120:10 *23918:C 38.6214 
3 *120:10 *23923:A2 41.3143 
*END

*D_NET *121 0.00248935
*CONN
*I *23933:A I *D sky130_fd_sc_hd__nand3_1
*I *23919:B I *D sky130_fd_sc_hd__and2_1
*I *23932:A I *D sky130_fd_sc_hd__and3_1
*I *23934:A1 I *D sky130_fd_sc_hd__a21oi_1
*I *23918:Y O *D sky130_fd_sc_hd__nand3_1
*CAP
1 *23933:A 0.000318177
2 *23919:B 0.000120724
3 *23932:A 0
4 *23934:A1 4.25104e-05
5 *23918:Y 0.00014614
6 *121:21 0.000318311
7 *121:10 0.000240097
8 *121:8 0.000464317
9 *23919:B *122:10 1.73399e-05
10 *23933:A *23943:C 2.73248e-05
11 *23933:A *135:8 0.000132685
12 *23933:A *136:8 9.5877e-05
13 *23933:A *390:36 0.000136256
14 *23934:A1 *23932:C 5.50049e-05
15 *121:8 *390:19 8.51329e-05
16 *121:8 *390:36 7.03869e-05
17 *121:21 *23932:B 4.62398e-06
18 *121:21 *23932:C 0.000126838
19 *23923:A2 *121:8 8.76088e-05
20 *111:14 *23933:A 0
21 *111:14 *121:8 0
*RES
1 *23918:Y *121:8 42.0186 
2 *121:8 *121:10 15 
3 *121:10 *23934:A1 23.6214 
4 *121:10 *121:21 3.02429 
5 *121:21 *23932:A 23 
6 *121:21 *23919:B 25.0714 
7 *121:8 *23933:A 44.0279 
*END

*D_NET *122 0.00150828
*CONN
*I *23922:B I *D sky130_fd_sc_hd__xnor2_1
*I *23920:B I *D sky130_fd_sc_hd__or2_1
*I *23919:X O *D sky130_fd_sc_hd__and2_1
*CAP
1 *23922:B 0.000185126
2 *23920:B 0
3 *23919:X 0.000250023
4 *122:10 0.000435149
5 *23922:B *23944:B1 0.000163352
6 *23922:B *24135:B1 0.000137651
7 *23922:B *123:10 0.000163361
8 *23922:B *147:10 1.02387e-05
9 *122:10 *147:10 2.11827e-05
10 *23919:B *122:10 1.73399e-05
11 *23922:A *23922:B 2.23858e-05
12 *23922:A *122:10 1.83564e-05
13 *115:8 *122:10 8.41115e-05
*RES
1 *23919:X *122:10 42.1843 
2 *122:10 *23920:B 38 
3 *122:10 *23922:B 42.6607 
*END

*D_NET *123 0.00367999
*CONN
*I *23946:A2 I *D sky130_fd_sc_hd__o21bai_1
*I *23921:B I *D sky130_fd_sc_hd__xnor2_1
*I *23920:X O *D sky130_fd_sc_hd__or2_1
*CAP
1 *23946:A2 0.000174644
2 *23921:B 5.29834e-05
3 *23920:X 0.000114913
4 *123:10 0.0007647
5 *123:8 0.000651985
6 *23946:A2 *23945:A 3.95159e-06
7 *23946:A2 *23945:B 0
8 *23946:A2 *148:6 2.93845e-05
9 *23946:A2 *149:10 0.000138313
10 *123:8 *23944:A2 0.000138444
11 *123:10 *23944:B1 1.47563e-05
12 *123:10 *24134:A 8.68016e-06
13 *123:10 *24138:A 6.7177e-06
14 *123:10 *147:21 0
15 *123:10 *296:8 0.000326983
16 *23909:B *23946:A2 5.33597e-05
17 *23909:B *123:10 0.000191157
18 *23921:A *23921:B 5.50106e-05
19 *23922:A *123:10 8.4047e-05
20 *23922:B *123:10 0.000163361
21 *111:14 *123:10 0.000539748
22 *112:27 *23946:A2 7.03766e-05
23 *114:10 *23946:A2 2.96051e-05
24 *114:10 *123:10 6.6869e-05
*RES
1 *23920:X *123:8 39.5743 
2 *123:8 *123:10 15.6393 
3 *123:10 *23921:B 39.1186 
4 *123:10 *23946:A2 41.9357 
*END

*D_NET *124 0.00182934
*CONN
*I *23945:A I *D sky130_fd_sc_hd__nor2_1
*I *24138:A I *D sky130_fd_sc_hd__and2_1
*I *23921:Y O *D sky130_fd_sc_hd__xnor2_1
*CAP
1 *23945:A 0.000224603
2 *24138:A 0.000142878
3 *23921:Y 0
4 *124:6 0.000367481
5 *23945:A *23945:B 0.000227497
6 *23945:A *149:10 5.31444e-05
7 *24138:A *23945:B 0.000138727
8 *24138:A *24138:B 0.000120673
9 *23910:B *24138:A 5.3304e-05
10 *23946:A1 *23945:A 5.36646e-05
11 *23946:A2 *23945:A 3.95159e-06
12 *113:8 *24138:A 2.18409e-05
13 *114:10 *23945:A 8.11552e-05
14 *114:10 *24138:A 0.000333707
15 *123:10 *24138:A 6.7177e-06
*RES
1 *23921:Y *124:6 38 
2 *124:6 *24138:A 42.9093 
3 *124:6 *23945:A 43.5307 
*END

*D_NET *125 0.00152085
*CONN
*I *24134:A I *D sky130_fd_sc_hd__nand2_1
*I *23944:B1 I *D sky130_fd_sc_hd__a21o_1
*I *23922:Y O *D sky130_fd_sc_hd__xnor2_1
*CAP
1 *24134:A 0.000219075
2 *23944:B1 0.000245378
3 *23922:Y 0
4 *125:6 0.000464453
5 *23944:B1 *23944:A2 7.53384e-06
6 *23944:B1 *136:8 1.92007e-05
7 *23944:B1 *147:10 8.38742e-05
8 *23944:B1 *147:21 2.49836e-05
9 *24134:A *147:21 9.98891e-05
10 *24134:A *296:8 0.000169674
11 *23922:B *23944:B1 0.000163352
12 *123:10 *23944:B1 1.47563e-05
13 *123:10 *24134:A 8.68016e-06
*RES
1 *23922:Y *125:6 38 
2 *125:6 *23944:B1 43.0336 
3 *125:6 *24134:A 42.6607 
*END

*D_NET *126 0.00154958
*CONN
*I *23933:B I *D sky130_fd_sc_hd__nand3_1
*I *23932:B I *D sky130_fd_sc_hd__and3_1
*I *23934:A2 I *D sky130_fd_sc_hd__a21oi_1
*I *23923:X O *D sky130_fd_sc_hd__a21o_1
*CAP
1 *23933:B 7.52834e-05
2 *23932:B 0.000135614
3 *23934:A2 0
4 *23923:X 0.000141402
5 *126:14 0.000226585
6 *126:10 0.000307656
7 *23932:B *23932:C 4.49393e-05
8 *23933:B *24131:A2 8.02348e-05
9 *23933:B *134:18 0.000125802
10 *23933:B *137:8 8.85189e-05
11 *23933:B *390:36 4.18032e-05
12 *126:10 *134:18 1.83667e-05
13 *126:10 *355:118 0
14 *126:10 *390:36 6.4393e-05
15 *126:14 *23932:C 0.000139352
16 *126:14 *134:25 5.50106e-05
17 *121:21 *23932:B 4.62398e-06
*RES
1 *23923:X *126:10 40.5271 
2 *126:10 *126:14 17.0507 
3 *126:14 *23934:A2 23 
4 *126:14 *23932:B 25.9207 
5 *126:10 *23933:B 41.3143 
*END

*D_NET *127 0.00195425
*CONN
*I *23929:A2 I *D sky130_fd_sc_hd__o21ai_1
*I *23928:B I *D sky130_fd_sc_hd__or3_1
*I *23924:Y O *D sky130_fd_sc_hd__a22oi_1
*CAP
1 *23929:A2 0.000265369
2 *23928:B 0
3 *23924:Y 0.000130707
4 *127:10 0.000396076
5 *23929:A2 *23935:A2 5.90291e-05
6 *23929:A2 *23935:B1 1.40958e-05
7 *23929:A2 *129:38 0.000193388
8 *23929:A2 *131:10 0.000138727
9 *23929:A2 *131:21 6.70363e-05
10 *23929:A2 *367:62 4.24313e-05
11 *23929:A2 *396:12 3.7122e-06
12 *23929:A2 *459:10 6.38845e-05
13 *127:10 *23924:A1 5.93722e-05
14 *127:10 *23924:A2 1.46586e-05
15 *127:10 *355:101 0.0002263
16 *127:10 *367:62 4.48671e-05
17 *127:10 *442:44 9.58714e-05
18 *127:10 *459:10 0.000138727
19 *118:27 *23929:A2 0
*RES
1 *23924:Y *127:10 42.4329 
2 *127:10 *23928:B 38 
3 *127:10 *23929:A2 43.945 
*END

*D_NET *128 0.000380716
*CONN
*I *24144:A3 I *D sky130_fd_sc_hd__a32o_1
*I *23925:Y O *D sky130_fd_sc_hd__nand2_1
*CAP
1 *24144:A3 0
2 *23925:Y 4.93995e-05
3 *128:8 4.93995e-05
4 *128:8 *24144:A2 0.000140958
5 *107:73 *128:8 0.000140958
*RES
1 *23925:Y *128:8 39.9057 
2 *128:8 *24144:A3 38 
*END

*D_NET *129 0.00666414
*CONN
*I *23927:A I *D sky130_fd_sc_hd__inv_2
*I *23937:B I *D sky130_fd_sc_hd__and3_1
*I *23938:A1 I *D sky130_fd_sc_hd__a21o_1
*I *23929:B1 I *D sky130_fd_sc_hd__o21ai_1
*I *23928:C I *D sky130_fd_sc_hd__or3_1
*I *24143:B I *D sky130_fd_sc_hd__and3_1
*I *23926:Y O *D sky130_fd_sc_hd__nand4_4
*CAP
1 *23927:A 0
2 *23937:B 0
3 *23938:A1 0.000153434
4 *23929:B1 0
5 *23928:C 0
6 *24143:B 0.000515869
7 *23926:Y 0
8 *129:73 0.000349916
9 *129:49 0.000461773
10 *129:38 0.000146255
11 *129:23 0.00041588
12 *129:19 0.000679061
13 *129:8 0.00093475
14 *129:4 0.000667701
15 *23938:A1 *23937:A 0.000223704
16 *23938:A1 *23937:C 3.53115e-05
17 *23938:A1 *23938:A2 4.00259e-06
18 *23938:A1 *140:8 0.000231306
19 *24143:B *23940:B 6.17437e-06
20 *24143:B *355:101 0.000696795
21 *129:8 *343:23 0.000162457
22 *129:8 *398:76 0
23 *129:19 *343:23 5.36457e-05
24 *129:23 *131:10 7.73389e-05
25 *129:38 *23935:A2 3.70187e-05
26 *129:38 *396:25 1.12487e-05
27 *129:49 *23937:A 3.53115e-05
28 *129:49 *343:23 3.60965e-05
29 *129:49 *343:25 8.60329e-05
30 *129:73 *367:29 0.000225265
31 *129:73 *434:50 5.50049e-05
32 *129:73 *459:10 7.66085e-05
33 *23928:A *129:23 2.93747e-05
34 *23928:A *129:38 2.02872e-05
35 *23929:A2 *129:38 0.000193388
36 *107:61 *129:8 0
37 *107:110 *129:8 0
38 *107:110 *129:19 0
39 *107:110 *129:49 0
40 *118:27 *129:38 4.31263e-05
*RES
1 *23926:Y *129:4 23 
2 *129:4 *129:8 21.4836 
3 *129:8 *24143:B 46.2443 
4 *129:8 *129:19 2.25786 
5 *129:19 *129:23 19.9093 
6 *129:23 *23928:C 23 
7 *129:23 *129:38 33.7286 
8 *129:38 *23929:B1 23 
9 *129:19 *129:49 20.7171 
10 *129:49 *23938:A1 27.8264 
11 *129:49 *23937:B 23 
12 *129:4 *129:73 36.9186 
13 *129:73 *23927:A 23 
*END

*D_NET *130 0.00180879
*CONN
*I *24147:A2 I *D sky130_fd_sc_hd__o21ai_1
*I *23927:Y O *D sky130_fd_sc_hd__inv_2
*CAP
1 *24147:A2 0.000152647
2 *23927:Y 0.000523991
3 *130:10 0.000676638
4 *130:10 *23906:A2 0.000126584
5 *130:10 *326:33 4.08537e-05
6 *130:10 *326:46 1.40958e-05
7 *130:10 *441:25 0.000142677
8 *107:90 *24147:A2 0.000131304
*RES
1 *23927:Y *130:10 45.54 
2 *130:10 *24147:A2 40.5271 
*END

*D_NET *131 0.00218107
*CONN
*I *23931:B1_N I *D sky130_fd_sc_hd__a21bo_1
*I *23930:B I *D sky130_fd_sc_hd__and3_1
*I *23935:A1 I *D sky130_fd_sc_hd__a21oi_1
*I *23928:X O *D sky130_fd_sc_hd__or3_1
*CAP
1 *23931:B1_N 2.72449e-05
2 *23930:B 0.000310363
3 *23935:A1 0
4 *23928:X 0.000170731
5 *131:21 0.000416637
6 *131:10 0.00024976
7 *23930:B *23930:A 0.00012377
8 *23930:B *138:27 0.000223698
9 *23931:B1_N *132:23 2.96154e-05
10 *23931:B1_N *367:62 3.79743e-05
11 *131:10 *367:62 0.000107625
12 *131:21 *23935:A2 1.02387e-05
13 *131:21 *132:23 1.94685e-05
14 *131:21 *367:62 0.000170848
15 *23929:A2 *131:10 0.000138727
16 *23929:A2 *131:21 6.70363e-05
17 *129:23 *131:10 7.73389e-05
*RES
1 *23928:X *131:10 41.48 
2 *131:10 *23935:A1 38 
3 *131:10 *131:21 2.87929 
4 *131:21 *23930:B 42.9093 
5 *131:21 *23931:B1_N 38.8493 
*END

*D_NET *132 0.00152454
*CONN
*I *23930:C I *D sky130_fd_sc_hd__and3_1
*I *23931:A2 I *D sky130_fd_sc_hd__a21bo_1
*I *23935:A2 I *D sky130_fd_sc_hd__a21oi_1
*I *23929:Y O *D sky130_fd_sc_hd__o21ai_1
*CAP
1 *23930:C 0.0001249
2 *23931:A2 0
3 *23935:A2 7.58155e-05
4 *23929:Y 0
5 *132:23 0.000273341
6 *132:6 0.000224257
7 *23930:C *23930:A 0.000113616
8 *23930:C *23942:A 5.3304e-05
9 *23935:A2 *23935:B1 9.5877e-05
10 *23935:A2 *396:25 8.9458e-05
11 *132:23 *23930:A 5.3304e-05
12 *132:23 *23942:A 6.53382e-05
13 *132:23 *24130:A1 1.22803e-05
14 *132:23 *138:27 4.21378e-05
15 *132:23 *367:62 7.75329e-06
16 *132:23 *396:25 0.000137788
17 *23929:A2 *23935:A2 5.90291e-05
18 *23931:B1_N *132:23 2.96154e-05
19 *129:38 *23935:A2 3.70187e-05
20 *131:21 *23935:A2 1.02387e-05
21 *131:21 *132:23 1.94685e-05
*RES
1 *23929:Y *132:6 38 
2 *132:6 *23935:A2 40.2993 
3 *132:6 *132:23 18.8321 
4 *132:23 *23931:A2 23 
5 *132:23 *23930:C 25.8586 
*END

*D_NET *133 0.00204417
*CONN
*I *24128:A1 I *D sky130_fd_sc_hd__o21ai_1
*I *23942:A I *D sky130_fd_sc_hd__or3_1
*I *23930:X O *D sky130_fd_sc_hd__and3_1
*CAP
1 *24128:A1 0.000258526
2 *23942:A 0.000467216
3 *23930:X 0
4 *133:6 0.000725742
5 *23942:A *134:8 2.15888e-05
6 *23942:A *138:27 0.000176915
7 *23942:A *144:8 0
8 *23942:A *355:118 0
9 *24128:A1 *24130:A1 0
10 *24128:A1 *134:8 0.000102638
11 *24128:A1 *138:27 6.46393e-05
12 *24128:A1 *145:17 5.41288e-05
13 *24128:A1 *355:118 0
14 *24128:A1 *355:122 5.41288e-05
15 *24128:A1 *355:138 0
16 *23930:C *23942:A 5.3304e-05
17 *132:23 *23942:A 6.53382e-05
*RES
1 *23930:X *133:6 38 
2 *133:6 *23942:A 46.3479 
3 *133:6 *24128:A1 44.1729 
*END

*D_NET *134 0.00248277
*CONN
*I *23932:C I *D sky130_fd_sc_hd__and3_1
*I *23934:B1 I *D sky130_fd_sc_hd__a21oi_1
*I *23933:C I *D sky130_fd_sc_hd__nand3_1
*I *23931:X O *D sky130_fd_sc_hd__a21bo_1
*CAP
1 *23932:C 8.77795e-05
2 *23934:B1 0
3 *23933:C 0
4 *23931:X 4.87916e-05
5 *134:25 0.000180477
6 *134:18 0.000148641
7 *134:12 0.000734549
8 *134:8 0.000542002
9 *134:8 *138:27 5.09885e-05
10 *134:18 *355:118 0
11 *134:18 *355:138 0
12 *23932:B *23932:C 4.49393e-05
13 *23933:B *134:18 0.000125802
14 *23934:A1 *23932:C 5.50049e-05
15 *23942:A *134:8 2.15888e-05
16 *24128:A1 *134:8 0.000102638
17 *121:21 *23932:C 0.000126838
18 *126:10 *134:18 1.83667e-05
19 *126:14 *23932:C 0.000139352
20 *126:14 *134:25 5.50106e-05
*RES
1 *23931:X *134:8 39.5536 
2 *134:8 *134:12 22.7679 
3 *134:12 *134:18 33.6664 
4 *134:18 *23933:C 23 
5 *134:12 *134:25 1.57429 
6 *134:25 *23934:B1 23 
7 *134:25 *23932:C 25.8379 
*END

*D_NET *135 0.00167695
*CONN
*I *24131:A1 I *D sky130_fd_sc_hd__o21ai_1
*I *24135:A1 I *D sky130_fd_sc_hd__o21a_1
*I *23943:A I *D sky130_fd_sc_hd__or3_1
*I *23932:X O *D sky130_fd_sc_hd__and3_1
*CAP
1 *24131:A1 0.000178971
2 *24135:A1 4.47995e-05
3 *23943:A 3.81122e-05
4 *23932:X 7.97248e-05
5 *135:19 0.000330057
6 *135:8 0.000224124
7 *23943:A *136:8 2.64616e-05
8 *24131:A1 *24134:B 0.000223043
9 *24131:A1 *390:36 7.23925e-05
10 *24135:A1 *24132:A1 1.59094e-05
11 *135:8 *390:36 9.21347e-06
12 *135:19 *24134:B 8.02348e-05
13 *135:19 *146:21 8.62783e-05
14 *135:19 *390:36 6.43253e-05
15 *23933:A *135:8 0.000132685
16 *111:14 *135:8 5.26204e-05
17 *111:14 *135:19 1.80023e-05
*RES
1 *23932:X *135:8 40.2579 
2 *135:8 *23943:A 38.6214 
3 *135:8 *135:19 2.96214 
4 *135:19 *24135:A1 38.6214 
5 *135:19 *24131:A1 42.5364 
*END

*D_NET *136 0.00120799
*CONN
*I *23944:A1 I *D sky130_fd_sc_hd__a21o_1
*I *23933:Y O *D sky130_fd_sc_hd__nand3_1
*CAP
1 *23944:A1 0
2 *23933:Y 0.000438649
3 *136:8 0.000438649
4 *136:8 *23943:B 5.3304e-05
5 *136:8 *23943:C 1.54983e-05
6 *136:8 *23944:A2 0.000116305
7 *136:8 *145:17 4.04598e-06
8 *23933:A *136:8 9.5877e-05
9 *23943:A *136:8 2.64616e-05
10 *23944:B1 *136:8 1.92007e-05
*RES
1 *23933:Y *136:8 30.6643 
2 *136:8 *23944:A1 23 
*END

*D_NET *137 0.00151718
*CONN
*I *24131:A2 I *D sky130_fd_sc_hd__o21ai_1
*I *23943:B I *D sky130_fd_sc_hd__or3_1
*I *23934:Y O *D sky130_fd_sc_hd__a21oi_1
*CAP
1 *24131:A2 0.00018966
2 *23943:B 4.99221e-05
3 *23934:Y 3.5598e-05
4 *137:8 0.00027518
5 *24131:A2 *145:23 6.32688e-05
6 *24131:A2 *293:8 0.000169683
7 *24131:A2 *355:138 0
8 *24131:A2 *390:36 0.00042553
9 *137:8 *390:36 8.62783e-05
10 *23933:B *24131:A2 8.02348e-05
11 *23933:B *137:8 8.85189e-05
12 *136:8 *23943:B 5.3304e-05
*RES
1 *23934:Y *137:8 39.2014 
2 *137:8 *23943:B 38.6214 
3 *137:8 *24131:A2 43.7793 
*END

*D_NET *138 0.00204725
*CONN
*I *24128:A2 I *D sky130_fd_sc_hd__o21ai_1
*I *23942:B I *D sky130_fd_sc_hd__or3_1
*I *23935:Y O *D sky130_fd_sc_hd__a21oi_1
*CAP
1 *24128:A2 0
2 *23942:B 0
3 *23935:Y 6.11485e-05
4 *138:27 0.000374239
5 *138:12 0.000413841
6 *138:8 0.00010075
7 *138:8 *343:25 0
8 *138:8 *367:62 8.62783e-05
9 *138:27 *23930:A 5.50049e-05
10 *138:27 *24130:A1 0.000379413
11 *138:27 *144:8 5.90675e-06
12 *138:27 *396:25 1.22906e-05
13 *23930:B *138:27 0.000223698
14 *23942:A *138:27 0.000176915
15 *24128:A1 *138:27 6.46393e-05
16 *132:23 *138:27 4.21378e-05
17 *134:8 *138:27 5.09885e-05
*RES
1 *23935:Y *138:8 39.2014 
2 *138:8 *138:12 15.6214 
3 *138:12 *23942:B 23 
4 *138:12 *138:27 40.3571 
5 *138:27 *24128:A2 23 
*END

*D_NET *139 0.00239914
*CONN
*I *23937:C I *D sky130_fd_sc_hd__and3_1
*I *23938:A2 I *D sky130_fd_sc_hd__a21o_1
*I *24143:C I *D sky130_fd_sc_hd__and3_1
*I *23936:X O *D sky130_fd_sc_hd__a22o_1
*CAP
1 *23937:C 0.000328474
2 *23938:A2 5.20968e-05
3 *24143:C 0.00011519
4 *23936:X 0.000110743
5 *139:23 0.0006797
6 *139:10 0.000525061
7 *23937:C *23937:A 0.000113608
8 *23937:C *140:8 9.24795e-06
9 *23938:A2 *23939:B 1.76557e-05
10 *23938:A2 *140:8 3.22879e-05
11 *24143:C *355:101 4.78907e-05
12 *139:10 *23940:B 2.54046e-05
13 *139:10 *432:41 5.67058e-05
14 *139:23 *23940:B 4.99753e-06
15 *139:23 *359:36 0
16 *139:23 *458:10 0
17 *23938:A1 *23937:C 3.53115e-05
18 *23938:A1 *23938:A2 4.00259e-06
19 *85:10 *139:23 0
20 *107:50 *139:23 0.000185755
21 *107:59 *24143:C 5.50049e-05
22 *107:110 *139:23 0
*RES
1 *23936:X *139:10 39.8229 
2 *139:10 *24143:C 39.6571 
3 *139:10 *139:23 20.7793 
4 *139:23 *23938:A2 24.9471 
5 *139:23 *23937:C 27.8264 
*END

*D_NET *140 0.00207016
*CONN
*I *23939:A_N I *D sky130_fd_sc_hd__and2b_1
*I *23941:B1 I *D sky130_fd_sc_hd__a21oi_1
*I *23937:X O *D sky130_fd_sc_hd__and3_1
*CAP
1 *23939:A_N 0
2 *23941:B1 0
3 *23937:X 0.00010407
4 *140:22 0.000501222
5 *140:8 0.000605292
6 *140:8 *23939:B 0.000230309
7 *140:8 *141:6 4.17736e-05
8 *140:22 *23941:A2 0.000289938
9 *140:22 *141:23 1.14876e-05
10 *140:22 *142:8 0
11 *140:22 *144:8 1.32314e-05
12 *140:22 *359:36 0
13 *140:22 *379:25 0
14 *23937:C *140:8 9.24795e-06
15 *23938:A1 *140:8 0.000231306
16 *23938:A2 *140:8 3.22879e-05
*RES
1 *23937:X *140:8 26.9771 
2 *140:8 *140:22 38.7829 
3 *140:22 *23941:B1 23 
4 *140:8 *23939:A_N 23 
*END

*D_NET *141 0.00194921
*CONN
*I *23941:A1 I *D sky130_fd_sc_hd__a21oi_1
*I *23939:B I *D sky130_fd_sc_hd__and2b_1
*I *23938:X O *D sky130_fd_sc_hd__a21o_1
*CAP
1 *23941:A1 0
2 *23939:B 0.000291031
3 *23938:X 4.5004e-05
4 *141:23 0.00028932
5 *141:6 0.000625356
6 *141:23 *23941:A2 7.59794e-05
7 *141:23 *379:12 0
8 *141:23 *379:25 0.000161121
9 *141:23 *458:10 0.000136486
10 *23938:A2 *23939:B 1.76557e-05
11 *107:110 *141:23 2.36844e-05
12 *140:8 *23939:B 0.000230309
13 *140:8 *141:6 4.17736e-05
14 *140:22 *141:23 1.14876e-05
*RES
1 *23938:X *141:6 23.6214 
2 *141:6 *23939:B 27.4536 
3 *141:6 *141:23 35.0129 
4 *141:23 *23941:A1 23 
*END

*D_NET *142 0.000760462
*CONN
*I *24125:A I *D sky130_fd_sc_hd__xnor2_1
*I *23939:X O *D sky130_fd_sc_hd__and2b_1
*CAP
1 *24125:A 8.24474e-05
2 *23939:X 0.000136435
3 *142:8 0.000218882
4 *24125:A *23941:A2 0.000228215
5 *24125:A *24123:A 5.50049e-05
6 *24125:A *289:10 2.93335e-05
7 *142:8 *359:36 0
8 *142:8 *379:12 1.01436e-05
9 *142:8 *379:25 0
10 *140:22 *142:8 0
*RES
1 *23939:X *142:8 40.2579 
2 *142:8 *24125:A 40.5271 
*END

*D_NET *143 0.00330106
*CONN
*I *23941:A2 I *D sky130_fd_sc_hd__a21oi_1
*I *24125:B I *D sky130_fd_sc_hd__xnor2_1
*I *24123:B I *D sky130_fd_sc_hd__nand2_1
*I *23940:X O *D sky130_fd_sc_hd__and3_1
*CAP
1 *23941:A2 0.00034552
2 *24125:B 0
3 *24123:B 0
4 *23940:X 0.00041237
5 *143:21 0.000451952
6 *143:12 0.000106432
7 *143:10 0.00041237
8 *23941:A2 *24123:A 1.72202e-05
9 *23941:A2 *289:10 1.03955e-05
10 *23941:A2 *379:12 0.000187129
11 *23941:A2 *379:25 0.000172197
12 *143:10 *23940:B 3.22879e-05
13 *143:10 *288:8 0.000330144
14 *143:10 *359:36 0
15 *143:10 *406:77 0
16 *143:21 *24123:A 0.000228909
17 *24125:A *23941:A2 0.000228215
18 *78:10 *143:10 0
19 *140:22 *23941:A2 0.000289938
20 *141:23 *23941:A2 7.59794e-05
*RES
1 *23940:X *143:10 46.5136 
2 *143:10 *143:12 15 
3 *143:12 *24123:B 23 
4 *143:12 *143:21 3.02429 
5 *143:21 *24125:B 23 
6 *143:21 *23941:A2 32.8393 
*END

*D_NET *144 0.00205149
*CONN
*I *23942:C I *D sky130_fd_sc_hd__or3_1
*I *24128:B1 I *D sky130_fd_sc_hd__o21ai_1
*I *23941:Y O *D sky130_fd_sc_hd__a21oi_1
*CAP
1 *23942:C 0
2 *24128:B1 0
3 *23941:Y 0.000223519
4 *144:16 0.000339096
5 *144:8 0.000562614
6 *144:16 *24129:A2 0.000185434
7 *144:16 *24129:B1 9.84851e-05
8 *144:16 *145:8 0
9 *144:16 *145:17 1.21972e-05
10 *144:16 *343:25 0.00021341
11 *144:16 *355:122 0.000397596
12 *144:16 *367:62 0
13 *23942:A *144:8 0
14 *138:27 *144:8 5.90675e-06
15 *140:22 *144:8 1.32314e-05
*RES
1 *23941:Y *144:8 26.8529 
2 *144:8 *144:16 39.86 
3 *144:16 *24128:B1 23 
4 *144:8 *23942:C 23 
*END

*D_NET *145 0.00403119
*CONN
*I *23943:C I *D sky130_fd_sc_hd__or3_1
*I *24131:B1 I *D sky130_fd_sc_hd__o21ai_1
*I *24129:A1 I *D sky130_fd_sc_hd__a21o_1
*I *23942:X O *D sky130_fd_sc_hd__or3_1
*CAP
1 *23943:C 0.00017037
2 *24131:B1 0
3 *24129:A1 0
4 *23942:X 0.000218853
5 *145:23 0.000166985
6 *145:17 0.00122103
7 *145:10 0.000883676
8 *145:8 0.000218853
9 *23943:C *23944:A2 0
10 *145:8 *292:8 0
11 *145:8 *343:25 0
12 *145:8 *367:62 0.000435004
13 *145:17 *24129:A2 0.000103647
14 *145:17 *355:122 0.000145052
15 *145:23 *529:DIODE 0
16 *145:23 *293:8 0.000169683
17 *145:23 *294:8 7.28526e-05
18 *145:23 *355:148 2.8241e-05
19 *145:23 *390:36 2.04774e-05
20 *23933:A *23943:C 2.73248e-05
21 *24128:A1 *145:17 5.41288e-05
22 *24131:A2 *145:23 6.32688e-05
23 *136:8 *23943:C 1.54983e-05
24 *136:8 *145:17 4.04598e-06
25 *144:16 *145:8 0
26 *144:16 *145:17 1.21972e-05
*RES
1 *23942:X *145:8 43.7793 
2 *145:8 *145:10 15 
3 *145:10 *24129:A1 23 
4 *145:10 *145:17 12.5321 
5 *145:17 *145:23 34.7229 
6 *145:23 *24131:B1 23 
7 *145:17 *23943:C 25.4236 
*END

*D_NET *146 0.00197936
*CONN
*I *24134:B I *D sky130_fd_sc_hd__nand2_1
*I *24132:A1 I *D sky130_fd_sc_hd__a21o_1
*I *23944:A2 I *D sky130_fd_sc_hd__a21o_1
*I *23943:X O *D sky130_fd_sc_hd__or3_1
*CAP
1 *24134:B 9.08528e-05
2 *24132:A1 0.000215666
3 *23944:A2 0.000165781
4 *23943:X 0
5 *146:21 0.000356062
6 *146:4 0.000215324
7 *24132:A1 *24132:A2 2.64616e-05
8 *24134:B *295:8 8.85189e-05
9 *23943:C *23944:A2 0
10 *23944:B1 *23944:A2 7.53384e-06
11 *24131:A1 *24134:B 0.000223043
12 *24135:A1 *24132:A1 1.59094e-05
13 *111:14 *24134:B 0.000112087
14 *111:14 *146:21 4.08537e-05
15 *123:8 *23944:A2 0.000138444
16 *135:19 *24134:B 8.02348e-05
17 *135:19 *146:21 8.62783e-05
18 *136:8 *23944:A2 0.000116305
*RES
1 *23943:X *146:4 23 
2 *146:4 *23944:A2 27.1429 
3 *146:4 *146:21 16.2014 
4 *146:21 *24132:A1 40.5271 
5 *146:21 *24134:B 42.0186 
*END

*D_NET *147 0.00448637
*CONN
*I *23945:B I *D sky130_fd_sc_hd__nor2_1
*I *24138:B I *D sky130_fd_sc_hd__and2_1
*I *24135:B1 I *D sky130_fd_sc_hd__o21a_1
*I *23944:X O *D sky130_fd_sc_hd__a21o_1
*CAP
1 *23945:B 0.000177785
2 *24138:B 0.000120535
3 *24135:B1 0.000113831
4 *23944:X 0.000284596
5 *147:21 0.000832069
6 *147:10 0.000932176
7 *147:21 *296:8 5.08899e-05
8 *23910:B *24138:B 5.3304e-05
9 *23911:B *23945:B 0.000118174
10 *23911:B *24138:B 0.000401593
11 *23911:B *147:21 3.47781e-05
12 *23922:A *24135:B1 0.000112087
13 *23922:B *24135:B1 0.000137651
14 *23922:B *147:10 1.02387e-05
15 *23944:B1 *147:10 8.38742e-05
16 *23944:B1 *147:21 2.49836e-05
17 *23945:A *23945:B 0.000227497
18 *23946:A1 *23945:B 0.000344635
19 *23946:A2 *23945:B 0
20 *24134:A *147:21 9.98891e-05
21 *24138:A *23945:B 0.000138727
22 *24138:A *24138:B 0.000120673
23 *113:8 *24138:B 9.88574e-06
24 *114:10 *24138:B 3.53115e-05
25 *122:10 *147:10 2.11827e-05
26 *123:10 *147:21 0
*RES
1 *23944:X *147:10 42.5364 
2 *147:10 *24135:B1 40.5271 
3 *147:10 *147:21 11.0614 
4 *147:21 *24138:B 42.93 
5 *147:21 *23945:B 44.1314 
*END

*D_NET *148 0.00202364
*CONN
*I *24139:A I *D sky130_fd_sc_hd__nor2_1
*I *23947:A1 I *D sky130_fd_sc_hd__o21a_1
*I *23945:Y O *D sky130_fd_sc_hd__nor2_1
*CAP
1 *24139:A 0
2 *23947:A1 0
3 *23945:Y 0.000139106
4 *148:29 0.000162288
5 *148:16 0.000361791
6 *148:6 0.000663184
7 *148:16 *23947:A2 9.41704e-05
8 *148:16 *298:10 7.73198e-05
9 *148:16 *318:23 0.000188326
10 *148:16 *414:10 5.67058e-05
11 *148:29 *298:10 7.76364e-06
12 *148:29 *414:10 0.000167443
13 *23946:A1 *148:6 5.67058e-05
14 *23946:A2 *148:6 2.93845e-05
15 *40:14 *148:16 0
16 *82:8 *148:16 1.94522e-05
*RES
1 *23945:Y *148:6 25.5271 
2 *148:6 *148:16 37.4157 
3 *148:16 *23947:A1 23 
4 *148:6 *148:29 33.2314 
5 *148:29 *24139:A 23 
*END

*D_NET *149 0.00158312
*CONN
*I *23947:A2 I *D sky130_fd_sc_hd__o21a_1
*I *23946:Y O *D sky130_fd_sc_hd__o21bai_1
*CAP
1 *23947:A2 0.000233803
2 *23946:Y 0.000111659
3 *149:10 0.000345461
4 *23947:A2 *318:23 1.72202e-05
5 *23909:B *23947:A2 0.0002263
6 *23921:A *23947:A2 5.50106e-05
7 *23945:A *149:10 5.31444e-05
8 *23946:A2 *149:10 0.000138313
9 *112:14 *23947:A2 5.3304e-05
10 *112:27 *23947:A2 0.000254735
11 *148:16 *23947:A2 9.41704e-05
*RES
1 *23946:Y *149:10 40.175 
2 *149:10 *23947:A2 43.8829 
*END

*D_NET *150 0.00422832
*CONN
*I *23953:A I *D sky130_fd_sc_hd__or2_1
*I *23950:A2 I *D sky130_fd_sc_hd__a21oi_1
*I *23949:C I *D sky130_fd_sc_hd__and3_1
*I *23983:A2 I *D sky130_fd_sc_hd__a211oi_1
*I *23982:B I *D sky130_fd_sc_hd__nor3_1
*I *23948:X O *D sky130_fd_sc_hd__and3_1
*CAP
1 *23953:A 6.64496e-05
2 *23950:A2 3.13128e-05
3 *23949:C 2.57347e-05
4 *23983:A2 0
5 *23982:B 8.52224e-05
6 *23948:X 0.000137566
7 *150:46 0.000323141
8 *150:31 0.000491775
9 *150:16 0.000527579
10 *150:10 0.000283125
11 *150:8 0.000137566
12 *23949:C *23949:B 0
13 *23949:C *23985:B1 6.37098e-06
14 *23950:A2 *23949:B 0.000135382
15 *23950:A2 *151:23 2.90591e-05
16 *23950:A2 *344:8 4.2573e-05
17 *23950:A2 *344:22 5.50049e-05
18 *23953:A *23955:B 0
19 *23953:A *155:8 1.5769e-05
20 *23982:B *23958:A_N 4.08664e-05
21 *23982:B *157:12 0.000141954
22 *23982:B *157:27 3.3266e-05
23 *23982:B *356:83 0.000226295
24 *150:8 *23958:B 1.7992e-05
25 *150:8 *154:10 0.000165593
26 *150:8 *310:74 0
27 *150:16 *23955:B 1.32314e-05
28 *150:16 *23958:B 0.000108681
29 *150:16 *155:8 5.61579e-05
30 *150:16 *157:8 0.000110913
31 *150:31 *23958:B 8.72173e-05
32 *150:31 *23985:A2 0
33 *150:31 *157:8 2.46345e-05
34 *150:31 *184:8 0
35 *150:31 *354:185 0
36 *150:46 *23949:B 5.67058e-06
37 *150:46 *23983:A1 0
38 *150:46 *23985:B1 0.000325284
39 *150:46 *151:23 4.07459e-05
40 *150:46 *344:22 0.000436191
*RES
1 *23948:X *150:8 40.9621 
2 *150:8 *150:10 15 
3 *150:10 *150:16 18.6043 
4 *150:16 *23982:B 41.0243 
5 *150:16 *150:31 19.0186 
6 *150:31 *23983:A2 23 
7 *150:31 *150:46 9.32143 
8 *150:46 *23949:C 23.4971 
9 *150:46 *23950:A2 24.6571 
10 *150:10 *23953:A 24.1186 
*END

*D_NET *151 0.00252859
*CONN
*I *23951:A I *D sky130_fd_sc_hd__nor2_1
*I *23985:B1 I *D sky130_fd_sc_hd__a21o_1
*I *23949:X O *D sky130_fd_sc_hd__and3_1
*CAP
1 *23951:A 0
2 *23985:B1 0.00019955
3 *23949:X 0
4 *151:23 0.000595203
5 *151:4 0.000794753
6 *151:23 *152:8 5.08795e-05
7 *151:23 *319:27 0.000112169
8 *151:23 *344:6 0.000222785
9 *151:23 *344:8 9.84851e-05
10 *151:23 *344:22 5.3304e-05
11 *23949:C *23985:B1 6.37098e-06
12 *23950:A2 *151:23 2.90591e-05
13 *150:46 *23985:B1 0.000325284
14 *150:46 *151:23 4.07459e-05
*RES
1 *23949:X *151:4 23 
2 *151:4 *23985:B1 27.9507 
3 *151:4 *151:23 40.4607 
4 *151:23 *23951:A 23 
*END

*D_NET *152 0.00120077
*CONN
*I *23951:B I *D sky130_fd_sc_hd__nor2_1
*I *23950:Y O *D sky130_fd_sc_hd__a21oi_1
*CAP
1 *23951:B 2.79004e-05
2 *23950:Y 0.000217911
3 *152:8 0.000245811
4 *23951:B *153:8 5.50106e-05
5 *152:8 *319:14 8.51329e-05
6 *152:8 *319:27 0.000272303
7 *152:8 *356:87 0
8 *152:8 *468:8 0
9 *152:8 *469:8 0.000245818
10 *151:23 *152:8 5.08795e-05
*RES
1 *23950:Y *152:8 44.4836 
2 *152:8 *23951:B 38.6214 
*END

*D_NET *153 0.00211296
*CONN
*I *24117:A I *D sky130_fd_sc_hd__xor2_1
*I *23985:A1 I *D sky130_fd_sc_hd__a21o_1
*I *23951:Y O *D sky130_fd_sc_hd__nor2_1
*CAP
1 *24117:A 0
2 *23985:A1 0
3 *23951:Y 0.000313708
4 *153:16 0.000280043
5 *153:8 0.00059375
6 *153:8 *284:10 2.02872e-05
7 *153:8 *285:10 0.00010018
8 *153:8 *361:108 0.000296075
9 *153:16 *23985:A2 0.000169674
10 *153:16 *24117:B 0.000239194
11 *153:16 *356:87 0
12 *153:16 *361:108 4.50413e-05
13 *23951:B *153:8 5.50106e-05
*RES
1 *23951:Y *153:8 29.8357 
2 *153:8 *153:16 36.6493 
3 *153:16 *23985:A1 23 
4 *153:8 *24117:A 23 
*END

*D_NET *154 0.0013143
*CONN
*I *23953:B I *D sky130_fd_sc_hd__or2_1
*I *23952:Y O *D sky130_fd_sc_hd__a21oi_1
*CAP
1 *23953:B 0
2 *23952:Y 0.000385388
3 *154:10 0.000385388
4 *154:10 *23958:B 0.000241193
5 *154:10 *159:8 0.000136738
6 *150:8 *154:10 0.000165593
*RES
1 *23952:Y *154:10 47.0107 
2 *154:10 *23953:B 38 
*END

*D_NET *155 0.00243143
*CONN
*I *23955:A I *D sky130_fd_sc_hd__nor2_1
*I *23957:A I *D sky130_fd_sc_hd__nand2_1
*I *23953:X O *D sky130_fd_sc_hd__or2_1
*CAP
1 *23955:A 0
2 *23957:A 0
3 *23953:X 0.000153231
4 *155:20 0.000347919
5 *155:8 0.00050115
6 *155:8 *23955:B 5.54148e-05
7 *155:8 *24112:A 2.3853e-05
8 *155:8 *335:10 0.000394994
9 *155:20 *23952:B1 0.000114092
10 *155:20 *23955:B 5.50106e-05
11 *155:20 *24112:A 2.65505e-05
12 *155:20 *159:8 1.14876e-05
13 *155:20 *310:8 0.000114083
14 *155:20 *310:14 3.47781e-05
15 *155:20 *310:110 0.000185428
16 *155:20 *335:27 0.000241616
17 *155:20 *363:107 8.57986e-05
18 *155:20 *445:25 1.40958e-05
19 *23953:A *155:8 1.5769e-05
20 *150:16 *155:8 5.61579e-05
*RES
1 *23953:X *155:8 27.93 
2 *155:8 *155:20 39.0729 
3 *155:20 *23957:A 23 
4 *155:8 *23955:A 23 
*END

*D_NET *156 0.00569393
*CONN
*I *23955:B I *D sky130_fd_sc_hd__nor2_1
*I *23957:B I *D sky130_fd_sc_hd__nand2_1
*I *23965:A I *D sky130_fd_sc_hd__and3_1
*I *23966:A1 I *D sky130_fd_sc_hd__a21oi_1
*I *23954:Y O *D sky130_fd_sc_hd__nand3_1
*CAP
1 *23955:B 0.000564703
2 *23957:B 1.80505e-05
3 *23965:A 4.54044e-05
4 *23966:A1 0.0003543
5 *23954:Y 0.000556767
6 *156:32 0.00076062
7 *156:21 0.000398614
8 *156:8 0.00108641
9 *23955:B *23958:B 0
10 *23955:B *24112:A 0.000144067
11 *23955:B *310:8 0
12 *23955:B *310:14 0
13 *23955:B *356:43 0
14 *23957:B *310:110 2.93747e-05
15 *23957:B *363:107 5.50049e-05
16 *23965:A *361:126 2.64616e-05
17 *23966:A1 *23966:A2 5.41288e-05
18 *23966:A1 *24236:A 5.97178e-05
19 *23966:A1 *333:23 3.0647e-05
20 *23966:A1 *343:25 0
21 *23966:A1 *367:103 0
22 *23966:A1 *418:23 0
23 *23966:A1 *445:25 0.000225265
24 *156:8 *23954:C 0.000354122
25 *156:8 *23959:B1 5.12254e-05
26 *156:8 *333:8 0.000161461
27 *156:21 *333:23 7.8128e-05
28 *156:21 *361:126 0
29 *156:21 *445:25 0.000306054
30 *156:32 *310:14 0
31 *156:32 *356:43 0
32 *156:32 *361:126 0
33 *156:32 *445:25 0.000209748
34 *23953:A *23955:B 0
35 *150:16 *23955:B 1.32314e-05
36 *155:8 *23955:B 5.54148e-05
37 *155:20 *23955:B 5.50106e-05
*RES
1 *23954:Y *156:8 46.2443 
2 *156:8 *23966:A1 43.9657 
3 *156:8 *156:21 4.37071 
4 *156:21 *23965:A 38.6214 
5 *156:21 *156:32 3.66643 
6 *156:32 *23957:B 38.6214 
7 *156:32 *23955:B 49.0614 
*END

*D_NET *157 0.00199827
*CONN
*I *23958:A_N I *D sky130_fd_sc_hd__and2b_1
*I *23956:B I *D sky130_fd_sc_hd__and2_1
*I *23982:C I *D sky130_fd_sc_hd__nor3_1
*I *23955:Y O *D sky130_fd_sc_hd__nor2_1
*CAP
1 *23958:A_N 0.000125702
2 *23956:B 0
3 *23982:C 0
4 *23955:Y 9.48627e-05
5 *157:27 0.000166008
6 *157:12 0.000196525
7 *157:10 0.000156219
8 *157:8 9.48627e-05
9 *23958:A_N *160:10 2.64616e-05
10 *23958:A_N *356:83 0.000117759
11 *157:8 *354:185 0
12 *157:12 *160:10 7.1349e-05
13 *157:27 *23982:A 0.000274729
14 *157:27 *24115:A 1.14452e-05
15 *157:27 *160:10 0.000182832
16 *157:27 *185:10 3.92407e-05
17 *157:27 *354:185 7.63552e-05
18 *157:27 *356:83 1.22822e-05
19 *23982:B *23958:A_N 4.08664e-05
20 *23982:B *157:12 0.000141954
21 *23982:B *157:27 3.3266e-05
22 *150:16 *157:8 0.000110913
23 *150:31 *157:8 2.46345e-05
*RES
1 *23955:Y *157:8 39.9057 
2 *157:8 *157:10 15 
3 *157:10 *157:12 1.57429 
4 *157:12 *23982:C 23 
5 *157:12 *157:27 35.51 
6 *157:27 *23956:B 23 
7 *157:10 *23958:A_N 26.0036 
*END

*D_NET *158 0.00102041
*CONN
*I *23983:B1 I *D sky130_fd_sc_hd__a211oi_1
*I *23984:B1 I *D sky130_fd_sc_hd__a31o_1
*I *23956:X O *D sky130_fd_sc_hd__and2_1
*CAP
1 *23983:B1 0.000113067
2 *23984:B1 0
3 *23956:X 0
4 *158:12 0.000233015
5 *158:4 0.000346082
6 *23983:B1 *23983:A1 1.32314e-05
7 *23983:B1 *185:10 5.50049e-05
8 *23983:B1 *344:26 3.99661e-05
9 *158:12 *24115:A 0.000138727
10 *158:12 *160:21 4.48671e-05
11 *158:12 *185:10 1.41077e-05
12 *158:12 *187:20 4.37586e-06
13 *158:12 *344:26 1.79651e-05
*RES
1 *23956:X *158:4 23 
2 *158:4 *158:12 33.9564 
3 *158:12 *23984:B1 23 
4 *158:4 *23983:B1 25.4236 
*END

*D_NET *159 0.00261899
*CONN
*I *23958:B I *D sky130_fd_sc_hd__and2b_1
*I *23957:Y O *D sky130_fd_sc_hd__nand2_1
*CAP
1 *23958:B 0.000393946
2 *23957:Y 0.000332925
3 *159:8 0.000726872
4 *23958:B *335:27 3.14377e-05
5 *23958:B *343:25 5.65491e-05
6 *23958:B *418:44 0.000246748
7 *159:8 *445:25 0.000227208
8 *23955:B *23958:B 0
9 *150:8 *23958:B 1.7992e-05
10 *150:16 *23958:B 0.000108681
11 *150:31 *23958:B 8.72173e-05
12 *154:10 *23958:B 0.000241193
13 *154:10 *159:8 0.000136738
14 *155:20 *159:8 1.14876e-05
*RES
1 *23957:Y *159:8 42.9093 
2 *159:8 *23958:B 48.005 
*END

*D_NET *160 0.00238834
*CONN
*I *23984:A1 I *D sky130_fd_sc_hd__a31o_1
*I *23981:A I *D sky130_fd_sc_hd__nand2_1
*I *24111:A I *D sky130_fd_sc_hd__xor2_1
*I *23958:X O *D sky130_fd_sc_hd__and2b_1
*CAP
1 *23984:A1 9.93365e-05
2 *23981:A 8.06723e-05
3 *24111:A 0
4 *23958:X 0.000436349
5 *160:21 0.000276856
6 *160:10 0.000533196
7 *23981:A *23981:B 3.52815e-05
8 *23981:A *23984:A2 2.64616e-05
9 *23981:A *183:10 7.53384e-06
10 *23984:A1 *23984:A2 9.00923e-05
11 *160:10 *23982:A 2.18506e-05
12 *160:10 *182:10 0.000168744
13 *160:10 *182:21 3.92407e-05
14 *160:10 *354:185 6.33627e-05
15 *160:10 *356:41 6.17437e-06
16 *160:21 *23982:A 0
17 *160:21 *24115:A 0
18 *160:21 *182:21 0.000158229
19 *160:21 *361:47 1.94522e-05
20 *23958:A_N *160:10 2.64616e-05
21 *157:12 *160:10 7.1349e-05
22 *157:27 *160:10 0.000182832
23 *158:12 *160:21 4.48671e-05
*RES
1 *23958:X *160:10 46.9486 
2 *160:10 *24111:A 38 
3 *160:10 *160:21 17.9621 
4 *160:21 *23981:A 24.595 
5 *160:21 *23984:A1 25.0507 
*END

*D_NET *161 0.00217075
*CONN
*I *23965:B I *D sky130_fd_sc_hd__and3_1
*I *23966:A2 I *D sky130_fd_sc_hd__a21oi_1
*I *23959:X O *D sky130_fd_sc_hd__a21o_1
*CAP
1 *23965:B 0.000169851
2 *23966:A2 0.0001661
3 *23959:X 6.27375e-05
4 *161:8 0.000398688
5 *23965:B *24110:A1 0.000127272
6 *23965:B *167:10 0.000232132
7 *23965:B *167:22 0.000163361
8 *23965:B *356:43 0.000292865
9 *23965:B *445:25 1.37349e-05
10 *23966:A2 *23965:C 5.14423e-05
11 *23966:A2 *24110:A1 3.92407e-05
12 *23966:A2 *24236:A 0.00010018
13 *23966:A2 *167:22 0.000275473
14 *23966:A2 *279:10 2.35393e-05
15 *23966:A1 *23966:A2 5.41288e-05
*RES
1 *23959:X *161:8 38.6214 
2 *161:8 *23966:A2 42.7643 
3 *161:8 *23965:B 43.7793 
*END

*D_NET *162 0.00567461
*CONN
*I *23963:A I *D sky130_fd_sc_hd__or3b_1
*I *23968:A1 I *D sky130_fd_sc_hd__o21bai_1
*I *23977:B I *D sky130_fd_sc_hd__nand2_1
*I *24100:A3 I *D sky130_fd_sc_hd__a31o_1
*I *23960:X O *D sky130_fd_sc_hd__and2_1
*CAP
1 *23963:A 0
2 *23968:A1 0.000137393
3 *23977:B 6.516e-05
4 *24100:A3 0
5 *23960:X 0.000463381
6 *162:40 0.000570938
7 *162:18 0.000512055
8 *162:10 0.000681209
9 *162:8 0.00100092
10 *23968:A1 *23961:B 4.00259e-06
11 *23968:A1 *23968:A2 0.000129677
12 *162:8 *365:46 0.000110951
13 *162:10 *179:23 5.19048e-05
14 *162:10 *192:34 0
15 *162:18 *23977:A 0.000351608
16 *162:18 *24264:A 0.000100069
17 *162:18 *192:34 0
18 *162:18 *308:162 1.24376e-05
19 *162:18 *308:168 0
20 *162:18 *393:16 0.0008659
21 *162:40 *23968:A2 1.32314e-05
22 *162:40 *163:6 1.41077e-05
23 *162:40 *179:23 0.000129871
24 *162:40 *192:34 0
25 *24207:A *162:40 0.000152169
26 *36:17 *162:40 9.86551e-06
27 *107:44 *162:18 0.000297758
*RES
1 *23960:X *162:8 43.8621 
2 *162:8 *162:10 2.25786 
3 *162:10 *162:18 30.6807 
4 *162:18 *24100:A3 23 
5 *162:10 *23977:B 39.2429 
6 *162:8 *162:40 24.9221 
7 *162:40 *23968:A1 26.5214 
8 *162:40 *23963:A 23 
*END

*D_NET *163 0.000946694
*CONN
*I *23963:B I *D sky130_fd_sc_hd__or3b_1
*I *23968:A2 I *D sky130_fd_sc_hd__o21bai_1
*I *23961:Y O *D sky130_fd_sc_hd__nand2_1
*CAP
1 *23963:B 0
2 *23968:A2 0.000168032
3 *23961:Y 0.000152993
4 *163:6 0.000321026
5 *23968:A2 *23961:B 1.37232e-05
6 *23968:A2 *388:33 7.88926e-05
7 *163:6 *23961:B 5.50106e-05
8 *23968:A1 *23968:A2 0.000129677
9 *162:40 *23968:A2 1.32314e-05
10 *162:40 *163:6 1.41077e-05
*RES
1 *23961:Y *163:6 25.0507 
2 *163:6 *23968:A2 27.8264 
3 *163:6 *23963:B 23 
*END

*D_NET *164 0.00475735
*CONN
*I *23964:A I *D sky130_fd_sc_hd__nand2_1
*I *23975:A1 I *D sky130_fd_sc_hd__a21oi_1
*I *23970:B I *D sky130_fd_sc_hd__and3_1
*I *23962:Y O *D sky130_fd_sc_hd__nand4_1
*CAP
1 *23964:A 0
2 *23975:A1 0
3 *23970:B 0
4 *23962:Y 0.000420043
5 *164:38 0.00100798
6 *164:25 0.00120918
7 *164:12 0.000407263
8 *164:8 0.00062611
9 *164:8 *23962:A 5.50049e-05
10 *164:8 *23962:C 0.000117769
11 *164:12 *179:23 0.00012821
12 *164:12 *355:214 0
13 *164:12 *364:139 0.000250839
14 *164:25 *23975:A2 4.75206e-05
15 *164:25 *165:8 0.000142808
16 *164:25 *171:12 3.7122e-06
17 *164:25 *179:23 0.000141888
18 *164:25 *386:18 8.06804e-06
19 *164:38 *354:109 0
20 *164:38 *386:12 9.67842e-05
21 *164:38 *386:18 9.41704e-05
*RES
1 *23962:Y *164:8 44.815 
2 *164:8 *164:12 20.4271 
3 *164:12 *23970:B 23 
4 *164:12 *164:25 33.9564 
5 *164:25 *23975:A1 23 
6 *164:25 *164:38 43.0086 
7 *164:38 *23964:A 23 
*END

*D_NET *165 0.00409042
*CONN
*I *23964:B I *D sky130_fd_sc_hd__nand2_1
*I *23972:A I *D sky130_fd_sc_hd__nand3_1
*I *23971:A I *D sky130_fd_sc_hd__and3_1
*I *23973:A1 I *D sky130_fd_sc_hd__a21oi_1
*I *23963:X O *D sky130_fd_sc_hd__or3b_1
*CAP
1 *23964:B 7.99798e-06
2 *23972:A 0
3 *23971:A 9.30312e-05
4 *23973:A1 0.000187302
5 *23963:X 0.000184572
6 *165:40 0.000105192
7 *165:27 0.000359095
8 *165:8 0.000540745
9 *23964:B *23972:B 8.14599e-05
10 *23971:A *23972:C 0.000107741
11 *23971:A *24234:A 0.000228001
12 *23971:A *172:28 0.000175271
13 *23973:A1 *23973:A2 3.34129e-05
14 *23973:A1 *172:17 7.15126e-05
15 *165:8 *170:8 0
16 *165:8 *177:8 0.000191138
17 *165:8 *179:23 7.97723e-05
18 *165:8 *388:33 0
19 *165:27 *23973:A2 0.000357631
20 *165:27 *170:8 0
21 *165:27 *172:28 0.00025048
22 *165:27 *177:8 3.70187e-05
23 *165:27 *179:23 4.28882e-05
24 *165:40 *23972:B 0.000317268
25 *165:40 *23973:A2 1.24376e-05
26 *165:40 *24234:A 0.000313249
27 *165:40 *170:25 0.000170394
28 *164:25 *165:8 0.000142808
*RES
1 *23963:X *165:8 42.3707 
2 *165:8 *23973:A1 40.5271 
3 *165:8 *165:27 21.2764 
4 *165:27 *23971:A 26.8529 
5 *165:27 *165:40 5.40643 
6 *165:40 *23972:A 23 
7 *165:40 *23964:B 23.6214 
*END

*D_NET *166 0.00311882
*CONN
*I *23965:C I *D sky130_fd_sc_hd__and3_1
*I *23966:B1 I *D sky130_fd_sc_hd__a21oi_1
*I *23964:Y O *D sky130_fd_sc_hd__nand2_1
*CAP
1 *23965:C 0.000471696
2 *23966:B1 3.56111e-05
3 *23964:Y 0.000597805
4 *166:10 0.00110511
5 *23965:C *23980:A1 0.000100553
6 *23965:C *24110:A1 2.95125e-05
7 *23965:C *168:8 3.26358e-05
8 *23965:C *182:10 0.000108681
9 *23965:C *278:10 0.000166513
10 *23965:C *279:10 0.000166522
11 *23965:C *354:153 1.01436e-05
12 *23965:C *355:258 1.27508e-05
13 *23965:C *355:262 3.62219e-05
14 *23965:C *356:43 2.24048e-05
15 *23965:C *361:126 3.68568e-05
16 *23966:B1 *23967:B 6.17437e-06
17 *23966:B1 *24236:A 5.3304e-05
18 *166:10 *23972:B 1.32314e-05
19 *166:10 *167:22 0
20 *166:10 *168:8 6.16439e-05
21 *166:10 *354:109 0
22 *23966:A2 *23965:C 5.14423e-05
*RES
1 *23964:Y *166:10 46.12 
2 *166:10 *23966:B1 38.6214 
3 *166:10 *23965:C 47.7461 
*END

*D_NET *167 0.00394299
*CONN
*I *23980:B1_N I *D sky130_fd_sc_hd__o21bai_2
*I *23967:A I *D sky130_fd_sc_hd__nor2_1
*I *23965:X O *D sky130_fd_sc_hd__and3_1
*CAP
1 *23980:B1_N 2.77218e-05
2 *23967:A 0
3 *23965:X 0.000192208
4 *167:22 0.00065839
5 *167:10 0.00087832
6 *23980:B1_N *356:72 5.3304e-05
7 *23980:B1_N *367:81 2.64616e-05
8 *167:10 *361:126 0.000135037
9 *167:10 *445:25 0.000244517
10 *167:22 *23967:B 0.00019127
11 *167:22 *24236:A 0.000179139
12 *167:22 *181:8 3.53115e-05
13 *167:22 *388:6 0.000143655
14 *167:22 *445:25 0.000506685
15 *23965:B *167:10 0.000232132
16 *23965:B *167:22 0.000163361
17 *23966:A2 *167:22 0.000275473
18 *166:10 *167:22 0
*RES
1 *23965:X *167:10 42.8886 
2 *167:10 *167:22 31.5714 
3 *167:22 *23967:A 23 
4 *167:10 *23980:B1_N 38.6214 
*END

*D_NET *168 0.00194321
*CONN
*I *23980:A1 I *D sky130_fd_sc_hd__o21bai_2
*I *23967:B I *D sky130_fd_sc_hd__nor2_1
*I *23966:Y O *D sky130_fd_sc_hd__a21oi_1
*CAP
1 *23980:A1 0.000221884
2 *23967:B 0.000214138
3 *23966:Y 9.02813e-05
4 *168:8 0.000526303
5 *23967:B *24236:A 1.57571e-05
6 *23967:B *169:10 2.47127e-05
7 *23967:B *181:8 0.00010018
8 *23980:A1 *278:10 0.000166513
9 *23980:A1 *354:105 0
10 *23980:A1 *354:109 0
11 *23980:A1 *355:258 0.000191166
12 *168:8 *354:109 0
13 *23965:C *23980:A1 0.000100553
14 *23965:C *168:8 3.26358e-05
15 *23966:B1 *23967:B 6.17437e-06
16 *166:10 *168:8 6.16439e-05
17 *167:22 *23967:B 0.00019127
*RES
1 *23966:Y *168:8 39.5536 
2 *168:8 *23967:B 43.4271 
3 *168:8 *23980:A1 43.075 
*END

*D_NET *169 0.00140886
*CONN
*I *24108:A I *D sky130_fd_sc_hd__xnor2_1
*I *23967:Y O *D sky130_fd_sc_hd__nor2_1
*CAP
1 *24108:A 0
2 *23967:Y 0.000255112
3 *169:10 0.000255112
4 *169:10 *181:8 0.000141954
5 *169:10 *181:12 0.000352547
6 *169:10 *354:105 0.000265339
7 *169:10 *354:109 0.000114083
8 *23967:B *169:10 2.47127e-05
*RES
1 *23967:Y *169:10 45.1257 
2 *169:10 *24108:A 38 
*END

*D_NET *170 0.0035867
*CONN
*I *23972:B I *D sky130_fd_sc_hd__nand3_1
*I *23971:B I *D sky130_fd_sc_hd__and3_1
*I *23973:A2 I *D sky130_fd_sc_hd__a21oi_1
*I *23968:Y O *D sky130_fd_sc_hd__o21bai_1
*CAP
1 *23972:B 0.000270979
2 *23971:B 2.34823e-05
3 *23973:A2 0.000364783
4 *23968:Y 0.000332151
5 *170:25 0.000393429
6 *170:10 0.00046375
7 *170:8 0.000332151
8 *23972:B *23972:C 1.14154e-05
9 *23973:A2 *172:17 0.000137651
10 *23973:A2 *172:28 2.81138e-05
11 *23973:A2 *175:10 5.13045e-05
12 *23973:A2 *178:10 5.50106e-05
13 *170:8 *177:8 0
14 *170:8 *386:8 0
15 *170:8 *388:25 0.000124678
16 *170:8 *388:33 1.19692e-05
17 *170:8 *464:10 0
18 *23964:B *23972:B 8.14599e-05
19 *23973:A1 *23973:A2 3.34129e-05
20 *165:8 *170:8 0
21 *165:27 *23973:A2 0.000357631
22 *165:27 *170:8 0
23 *165:40 *23972:B 0.000317268
24 *165:40 *23973:A2 1.24376e-05
25 *165:40 *170:25 0.000170394
26 *166:10 *23972:B 1.32314e-05
*RES
1 *23968:Y *170:8 43.7793 
2 *170:8 *170:10 15 
3 *170:10 *23973:A2 31.4307 
4 *170:10 *170:25 2.05071 
5 *170:25 *23971:B 23.4971 
6 *170:25 *23972:B 30.2293 
*END

*D_NET *171 0.00114952
*CONN
*I *23975:A2 I *D sky130_fd_sc_hd__a21oi_1
*I *23970:C I *D sky130_fd_sc_hd__and3_1
*I *23969:X O *D sky130_fd_sc_hd__a22o_1
*CAP
1 *23975:A2 3.68765e-05
2 *23970:C 2.01689e-05
3 *23969:X 4.70287e-05
4 *171:12 0.000185993
5 *171:8 0.000175977
6 *23970:C *23970:A 5.90675e-06
7 *23970:C *386:18 3.22076e-05
8 *23975:A2 *386:18 0.000111395
9 *171:8 *353:80 0.000171906
10 *171:8 *355:214 0.000169674
11 *171:12 *386:18 4.19743e-05
12 *171:12 *386:26 9.91798e-05
13 *164:25 *23975:A2 4.75206e-05
14 *164:25 *171:12 3.7122e-06
*RES
1 *23969:X *171:8 40.2579 
2 *171:8 *171:12 18.0036 
3 *171:12 *23970:C 23.725 
4 *171:12 *23975:A2 24.5743 
*END

*D_NET *172 0.00237588
*CONN
*I *23972:C I *D sky130_fd_sc_hd__nand3_1
*I *23971:C I *D sky130_fd_sc_hd__and3_1
*I *23976:A I *D sky130_fd_sc_hd__or2_1
*I *23973:B1 I *D sky130_fd_sc_hd__a21oi_1
*I *23970:X O *D sky130_fd_sc_hd__and3_1
*CAP
1 *23972:C 0.000149885
2 *23971:C 0
3 *23976:A 0
4 *23973:B1 0
5 *23970:X 8.35053e-05
6 *172:28 0.000524998
7 *172:17 0.00043048
8 *172:10 5.5367e-05
9 *172:8 8.35053e-05
10 *23972:C *24234:A 7.22251e-05
11 *172:8 *179:23 0.000138718
12 *172:8 *355:214 0
13 *172:28 *23976:B 5.50106e-05
14 *23971:A *23972:C 0.000107741
15 *23971:A *172:28 0.000175271
16 *23972:B *23972:C 1.14154e-05
17 *23973:A1 *172:17 7.15126e-05
18 *23973:A2 *172:17 0.000137651
19 *23973:A2 *172:28 2.81138e-05
20 *165:27 *172:28 0.00025048
*RES
1 *23970:X *172:8 39.9057 
2 *172:8 *172:10 15 
3 *172:10 *23973:B1 23 
4 *172:10 *172:17 1.57429 
5 *172:17 *23976:A 23 
6 *172:17 *172:28 7.25 
7 *172:28 *23971:C 23 
8 *172:28 *23972:C 26.2521 
*END

*D_NET *173 0.000770097
*CONN
*I *23974:A I *D sky130_fd_sc_hd__or2_1
*I *23971:X O *D sky130_fd_sc_hd__and3_1
*CAP
1 *23974:A 3.05231e-05
2 *23971:X 0.000125958
3 *173:8 0.000156481
4 *23974:A *23979:B1 0.000185428
5 *23974:A *181:8 0.000185428
6 *173:8 *174:8 0
7 *173:8 *388:14 0
8 *173:8 *388:25 8.62783e-05
*RES
1 *23971:X *173:8 40.2579 
2 *173:8 *23974:A 40.0507 
*END

*D_NET *174 0.001902
*CONN
*I *23979:B1 I *D sky130_fd_sc_hd__o31a_1
*I *23972:Y O *D sky130_fd_sc_hd__nand3_1
*CAP
1 *23979:B1 0.000294934
2 *23972:Y 0.000120914
3 *174:8 0.000415848
4 *23979:B1 *23974:B 0.0002263
5 *23979:B1 *181:8 0.000186041
6 *23979:B1 *355:239 7.7498e-05
7 *23979:B1 *388:6 0.000125488
8 *23979:B1 *388:14 0.000269545
9 *174:8 *354:109 0
10 *174:8 *388:25 0
11 *23974:A *23979:B1 0.000185428
12 *173:8 *174:8 0
*RES
1 *23972:Y *174:8 39.9057 
2 *174:8 *23979:B1 48.1707 
*END

*D_NET *175 0.00130951
*CONN
*I *23974:B I *D sky130_fd_sc_hd__or2_1
*I *23979:A1 I *D sky130_fd_sc_hd__o31a_1
*I *23973:Y O *D sky130_fd_sc_hd__a21oi_1
*CAP
1 *23974:B 5.16605e-05
2 *23979:A1 0
3 *23973:Y 0.000202763
4 *175:12 5.16605e-05
5 *175:10 0.000202763
6 *23974:B *181:8 0.000143655
7 *23974:B *355:239 5.86907e-05
8 *175:10 *178:10 0.000167387
9 *175:10 *178:23 6.38845e-05
10 *175:10 *388:14 8.94394e-05
11 *23973:A2 *175:10 5.13045e-05
12 *23979:B1 *23974:B 0.0002263
*RES
1 *23973:Y *175:10 41.8321 
2 *175:10 *175:12 15 
3 *175:12 *23979:A1 23 
4 *175:12 *23974:B 25.5271 
*END

*D_NET *176 0.00200463
*CONN
*I *24105:A I *D sky130_fd_sc_hd__xnor2_1
*I *23974:X O *D sky130_fd_sc_hd__or2_1
*CAP
1 *24105:A 0.000310284
2 *23974:X 0.000273686
3 *176:8 0.00058397
4 *24105:A *367:81 0.000742784
5 *176:8 *355:239 0
6 *176:8 *361:23 9.39056e-05
*RES
1 *23974:X *176:8 43.075 
2 *176:8 *24105:A 46.2443 
*END

*D_NET *177 0.000626675
*CONN
*I *23976:B I *D sky130_fd_sc_hd__or2_1
*I *23975:Y O *D sky130_fd_sc_hd__a21oi_1
*CAP
1 *23976:B 3.27104e-05
2 *23975:Y 0.000112987
3 *177:8 0.000145697
4 *177:8 *386:8 5.21127e-05
5 *165:8 *177:8 0.000191138
6 *165:27 *177:8 3.70187e-05
7 *170:8 *177:8 0
8 *172:28 *23976:B 5.50106e-05
*RES
1 *23975:Y *177:8 40.9621 
2 *177:8 *23976:B 38.6214 
*END

*D_NET *178 0.00197259
*CONN
*I *23978:A I *D sky130_fd_sc_hd__or2_1
*I *24102:A I *D sky130_fd_sc_hd__nand2_1
*I *23979:A2 I *D sky130_fd_sc_hd__o31a_1
*I *23976:X O *D sky130_fd_sc_hd__or2_1
*CAP
1 *23978:A 0
2 *24102:A 3.49021e-05
3 *23979:A2 0
4 *23976:X 8.66664e-05
5 *178:23 0.000184271
6 *178:10 0.000236035
7 *24102:A *24102:B 0.000184527
8 *178:10 *179:23 0.000138718
9 *178:10 *179:36 1.14452e-05
10 *178:23 *24102:B 8.6949e-05
11 *178:23 *179:36 0.000262521
12 *178:23 *388:14 9.03157e-05
13 *23973:A2 *178:10 5.50106e-05
14 *105:40 *24102:A 0.000184527
15 *105:40 *178:23 0.000185428
16 *175:10 *178:10 0.000167387
17 *175:10 *178:23 6.38845e-05
*RES
1 *23976:X *178:10 40.5271 
2 *178:10 *23979:A2 38 
3 *178:10 *178:23 20.365 
4 *178:23 *24102:A 25.0507 
5 *178:23 *23978:A 23 
*END

*D_NET *179 0.00674833
*CONN
*I *23978:B I *D sky130_fd_sc_hd__or2_1
*I *24102:B I *D sky130_fd_sc_hd__nand2_1
*I *23979:A3 I *D sky130_fd_sc_hd__o31a_1
*I *24101:A2 I *D sky130_fd_sc_hd__o211a_1
*I *23977:Y O *D sky130_fd_sc_hd__nand2_1
*CAP
1 *23978:B 0
2 *24102:B 0.000198446
3 *23979:A3 0
4 *24101:A2 0
5 *23977:Y 0.000150571
6 *179:36 0.00036137
7 *179:23 0.000937986
8 *179:16 0.000430296
9 *179:8 0.00135593
10 *179:8 *23977:A 2.64616e-05
11 *179:16 *24101:A1 0.000377497
12 *179:16 *24101:B1 0.000222176
13 *179:16 *24242:A 0.000324742
14 *179:16 *353:63 0.000209374
15 *179:16 *365:46 0.000163168
16 *179:23 *24242:A 6.48142e-05
17 *179:23 *355:214 0
18 *179:23 *364:139 0
19 *179:23 *365:46 0.00014933
20 *179:23 *388:33 0
21 *179:36 *24103:A1 0
22 *179:36 *274:8 0
23 *179:36 *355:214 0
24 *24102:A *24102:B 0.000184527
25 *24207:A *179:23 0.000293134
26 *36:17 *179:23 2.47015e-05
27 *105:40 *24102:B 6.09235e-05
28 *162:10 *179:23 5.19048e-05
29 *162:40 *179:23 0.000129871
30 *164:12 *179:23 0.00012821
31 *164:25 *179:23 0.000141888
32 *165:8 *179:23 7.97723e-05
33 *165:27 *179:23 4.28882e-05
34 *172:8 *179:23 0.000138718
35 *178:10 *179:23 0.000138718
36 *178:10 *179:36 1.14452e-05
37 *178:23 *24102:B 8.6949e-05
38 *178:23 *179:36 0.000262521
*RES
1 *23977:Y *179:8 39.5743 
2 *179:8 *179:16 27.5114 
3 *179:16 *24101:A2 23 
4 *179:8 *179:23 20.2171 
5 *179:23 *23979:A3 38 
6 *179:23 *179:36 18.5836 
7 *179:36 *24102:B 27.4536 
8 *179:36 *23978:B 23 
*END

*D_NET *180 0.000732785
*CONN
*I *24105:B I *D sky130_fd_sc_hd__xnor2_1
*I *24103:A1 I *D sky130_fd_sc_hd__a21o_1
*I *23978:X O *D sky130_fd_sc_hd__or2_1
*CAP
1 *24105:B 0.000109317
2 *24103:A1 0.000207053
3 *23978:X 0
4 *180:6 0.00031637
5 *24103:A1 *24103:A2 5.67058e-05
6 *24103:A1 *274:8 4.334e-05
7 *24103:A1 *363:34 0
8 *24103:A1 *388:14 0
9 *24105:B *363:34 0
10 *24105:B *388:14 0
11 *179:36 *24103:A1 0
*RES
1 *23978:X *180:6 38 
2 *180:6 *24103:A1 41.5836 
3 *180:6 *24105:B 39.9057 
*END

*D_NET *181 0.00324387
*CONN
*I *23980:A2 I *D sky130_fd_sc_hd__o21bai_2
*I *24108:B I *D sky130_fd_sc_hd__xnor2_1
*I *23979:X O *D sky130_fd_sc_hd__o31a_1
*CAP
1 *23980:A2 0.000222091
2 *24108:B 0
3 *23979:X 0.00041993
4 *181:12 0.000435733
5 *181:8 0.000633572
6 *23980:A2 *278:10 9.17998e-05
7 *23980:A2 *367:81 0.000180348
8 *181:8 *355:239 5.67058e-05
9 *181:8 *388:6 4.73234e-05
10 *181:12 *354:109 1.12487e-05
11 *23967:B *181:8 0.00010018
12 *23974:A *181:8 0.000185428
13 *23974:B *181:8 0.000143655
14 *23979:B1 *181:8 0.000186041
15 *167:22 *181:8 3.53115e-05
16 *169:10 *181:8 0.000141954
17 *169:10 *181:12 0.000352547
*RES
1 *23979:X *181:8 49.1029 
2 *181:8 *181:12 20.075 
3 *181:12 *24108:B 23 
4 *181:12 *23980:A2 27.4536 
*END

*D_NET *182 0.00449642
*CONN
*I *23984:A2 I *D sky130_fd_sc_hd__a31o_1
*I *23981:B I *D sky130_fd_sc_hd__nand2_1
*I *24111:B I *D sky130_fd_sc_hd__xor2_1
*I *23980:Y O *D sky130_fd_sc_hd__o21bai_2
*CAP
1 *23984:A2 0.000204145
2 *23981:B 0.000130599
3 *24111:B 0
4 *23980:Y 3.05772e-05
5 *182:21 0.00040486
6 *182:10 0.000500866
7 *182:8 0.000461326
8 *23981:B *183:10 9.8971e-06
9 *182:8 *279:10 8.06804e-06
10 *182:8 *356:72 6.17437e-06
11 *182:8 *367:81 5.3304e-05
12 *182:10 *23982:A 0
13 *182:10 *354:153 0.000834137
14 *182:10 *356:41 5.01986e-05
15 *182:10 *356:43 0.000956189
16 *182:10 *361:47 0.000130056
17 *182:21 *361:47 8.92944e-05
18 *23965:C *182:10 0.000108681
19 *23981:A *23981:B 3.52815e-05
20 *23981:A *23984:A2 2.64616e-05
21 *23984:A1 *23984:A2 9.00923e-05
22 *160:10 *182:10 0.000168744
23 *160:10 *182:21 3.92407e-05
24 *160:21 *182:21 0.000158229
*RES
1 *23980:Y *182:8 38.6214 
2 *182:8 *182:10 16.3436 
3 *182:10 *24111:B 38 
4 *182:10 *182:21 17.61 
5 *182:21 *23981:B 25.0714 
6 *182:21 *23984:A2 26.5007 
*END

*D_NET *183 0.000840276
*CONN
*I *24114:A I *D sky130_fd_sc_hd__xnor2_1
*I *23981:Y O *D sky130_fd_sc_hd__nand2_1
*CAP
1 *24114:A 0
2 *23981:Y 0.000241847
3 *183:10 0.000241847
4 *183:10 *24114:B 0
5 *183:10 *24115:A 0
6 *183:10 *355:262 1.12487e-05
7 *183:10 *361:47 0.000327903
8 *183:10 *361:108 0
9 *23981:A *183:10 7.53384e-06
10 *23981:B *183:10 9.8971e-06
*RES
1 *23981:Y *183:10 43.3443 
2 *183:10 *24114:A 38 
*END

*D_NET *184 0.000325273
*CONN
*I *23983:C1 I *D sky130_fd_sc_hd__a211oi_1
*I *23982:Y O *D sky130_fd_sc_hd__nor3_1
*CAP
1 *23983:C1 0
2 *23982:Y 9.48627e-05
3 *184:8 9.48627e-05
4 *184:8 *354:185 0.000135547
5 *150:31 *184:8 0
*RES
1 *23982:Y *184:8 39.9057 
2 *184:8 *23983:C1 38 
*END

*D_NET *185 0.00206135
*CONN
*I *24114:B I *D sky130_fd_sc_hd__xnor2_1
*I *23984:A3 I *D sky130_fd_sc_hd__a31o_1
*I *23983:Y O *D sky130_fd_sc_hd__a211oi_1
*CAP
1 *24114:B 0.00027126
2 *23984:A3 0
3 *23983:Y 0.000144186
4 *185:10 0.000415447
5 *24114:B *24115:A 0.000214968
6 *24114:B *282:10 2.4754e-05
7 *24114:B *354:185 0.000222193
8 *24114:B *355:279 0.000230604
9 *24114:B *361:96 0.000103637
10 *185:10 *24115:A 0.000101564
11 *185:10 *344:26 9.84794e-05
12 *185:10 *354:185 0.000125904
13 *23983:B1 *185:10 5.50049e-05
14 *157:27 *185:10 3.92407e-05
15 *158:12 *185:10 1.41077e-05
16 *183:10 *24114:B 0
*RES
1 *23983:Y *185:10 42.4121 
2 *185:10 *23984:A3 38 
3 *185:10 *24114:B 47.2593 
*END

*D_NET *186 0.00176672
*CONN
*I *24117:B I *D sky130_fd_sc_hd__xor2_1
*I *23985:A2 I *D sky130_fd_sc_hd__a21o_1
*I *23984:X O *D sky130_fd_sc_hd__a31o_1
*CAP
1 *24117:B 0.000123543
2 *23985:A2 0.000129254
3 *23984:X 0.000398626
4 *186:8 0.000651423
5 *23985:A2 *344:22 0
6 *23985:A2 *356:87 0
7 *24117:B *356:87 0
8 *24117:B *361:108 5.50106e-05
9 *150:31 *23985:A2 0
10 *153:16 *23985:A2 0.000169674
11 *153:16 *24117:B 0.000239194
*RES
1 *23984:X *186:8 44.815 
2 *186:8 *23985:A2 40.9621 
3 *186:8 *24117:B 41.2314 
*END

*D_NET *187 0.0112939
*CONN
*I *24120:A2 I *D sky130_fd_sc_hd__a21o_1
*I *23986:C I *D sky130_fd_sc_hd__and3_1
*I *23985:X O *D sky130_fd_sc_hd__a21o_1
*CAP
1 *24120:A2 0
2 *23986:C 2.58871e-05
3 *23985:X 0
4 *187:35 6.96185e-05
5 *187:22 0.00083145
6 *187:20 0.00371318
7 *187:4 0.00297723
8 *23986:C *420:10 4.07962e-05
9 *187:20 *24046:A 0.00010018
10 *187:20 *24046:B 0.00015728
11 *187:20 *24188:CLK 0.000288279
12 *187:20 *24188:D 3.54023e-05
13 *187:20 *229:14 3.87132e-05
14 *187:20 *280:12 3.20742e-05
15 *187:20 *344:22 0.000301719
16 *187:20 *344:26 0.000264564
17 *187:20 *347:22 0.000288779
18 *187:20 *475:10 6.40565e-05
19 *187:22 *24043:A 0.000783662
20 *187:22 *24121:A_N 2.81544e-05
21 *187:22 *24121:B 8.39585e-06
22 *187:22 *24121:C 0.000188713
23 *187:22 *24268:A 0.000123944
24 *187:22 *233:10 0.000228001
25 *187:22 *420:10 8.52481e-05
26 *187:35 *309:81 0.000166532
27 *187:35 *360:87 6.7911e-05
28 *187:35 *360:100 1.37349e-05
29 *77:16 *187:22 0.000366033
30 *158:12 *187:20 4.37586e-06
*RES
1 *23985:X *187:4 23 
2 *187:4 *187:20 45.1986 
3 *187:20 *187:22 18.2493 
4 *187:22 *23986:C 23.4557 
5 *187:22 *187:35 32.2579 
6 *187:35 *24120:A2 23 
*END

*D_NET *188 0.00337919
*CONN
*I *24121:A_N I *D sky130_fd_sc_hd__and3b_1
*I *23987:B I *D sky130_fd_sc_hd__and2_1
*I *23986:X O *D sky130_fd_sc_hd__and3_1
*CAP
1 *24121:A_N 0.000420507
2 *23987:B 0
3 *23986:X 0
4 *188:12 0.000575918
5 *188:4 0.000996424
6 *24121:A_N *23986:B 5.3304e-05
7 *24121:A_N *24121:B 0.00010412
8 *24121:A_N *24268:A 0.000123944
9 *188:12 *309:18 3.0647e-05
10 *188:12 *309:81 5.56306e-05
11 *188:12 *360:74 0.000166513
12 *188:12 *362:170 0.000210885
13 *188:12 *479:8 0
14 *23987:A *188:12 0.00022109
15 *77:16 *24121:A_N 0.000291874
16 *90:163 *188:12 0.00010018
17 *187:22 *24121:A_N 2.81544e-05
*RES
1 *23986:X *188:4 23 
2 *188:4 *188:12 43.8371 
3 *188:12 *23987:B 23 
4 *188:4 *24121:A_N 31.2857 
*END

*D_NET *189 0.00329682
*CONN
*I *23989:B1 I *D sky130_fd_sc_hd__o211a_1
*I *23988:X O *D sky130_fd_sc_hd__or3_1
*CAP
1 *23989:B1 0.000270106
2 *23988:X 0.000472683
3 *189:10 0.000742789
4 *23989:B1 *24225:A 5.50049e-05
5 *23989:B1 *308:29 0.000237534
6 *23989:B1 *308:37 0.000407218
7 *23989:B1 *364:29 0.000644742
8 *23989:B1 *365:19 7.75329e-06
9 *189:10 *23988:C 0
10 *189:10 *24080:A2 4.02485e-05
11 *189:10 *24151:D 1.64354e-05
12 *189:10 *194:16 0.000228903
13 *189:10 *400:27 9.4713e-05
14 *23897:B *23989:B1 1.47563e-05
15 *23989:C1 *23989:B1 1.14452e-05
16 *102:6 *189:10 5.24891e-05
*RES
1 *23988:X *189:10 46.7414 
2 *189:10 *23989:B1 47.9221 
*END

*D_NET *190 0.000929058
*CONN
*I *24249:A I *D sky130_fd_sc_hd__dlygate4sd3_1
*I *23990:X O *D sky130_fd_sc_hd__or3_1
*CAP
1 *24249:A 0.000204514
2 *23990:X 7.90666e-05
3 *190:8 0.000283581
4 *24249:A *364:29 0.000306266
5 *190:8 *23899:A1 0
6 *190:8 *364:29 5.56306e-05
7 *190:8 *372:10 0
*RES
1 *23990:X *190:8 39.5536 
2 *190:8 *24249:A 42.4536 
*END

*D_NET *191 0.00105894
*CONN
*I *24281:A I *D sky130_fd_sc_hd__dlygate4sd3_1
*I *23992:Y O *D sky130_fd_sc_hd__a21oi_1
*CAP
1 *24281:A 0
2 *23992:Y 0.000318774
3 *191:10 0.000318774
4 *191:10 *23992:A2 5.50106e-05
5 *191:10 *432:14 0.000141226
6 *191:10 *437:23 0.000138727
7 *24142:C *191:10 1.95448e-05
8 *107:44 *191:10 6.68793e-05
*RES
1 *23992:Y *191:10 43.3546 
2 *191:10 *24281:A 38 
*END

*D_NET *192 0.0093981
*CONN
*I *24003:B I *D sky130_fd_sc_hd__or2_1
*I *23995:A2 I *D sky130_fd_sc_hd__o21ai_1
*I *24090:C I *D sky130_fd_sc_hd__or3_1
*I *23994:Y O *D sky130_fd_sc_hd__nor2_1
*CAP
1 *24003:B 0
2 *23995:A2 0
3 *24090:C 2.34823e-05
4 *23994:Y 0.000404253
5 *192:34 0.00111264
6 *192:23 0.00194151
7 *192:12 0.00109512
8 *192:8 0.000647026
9 *24090:C *270:8 0
10 *192:8 *307:14 0
11 *192:8 *312:39 0
12 *192:8 *429:8 0
13 *192:12 *270:8 0.000317553
14 *192:12 *425:21 2.93845e-05
15 *192:23 *425:21 6.68822e-05
16 *192:34 *308:19 0
17 *192:34 *308:25 0
18 *192:34 *308:145 0
19 *192:34 *308:162 0
20 *192:34 *308:168 0.000137071
21 *192:34 *353:63 0.000169674
22 *192:34 *406:77 0.000191546
23 *192:34 *407:10 0.000164282
24 *192:34 *457:8 4.13358e-05
25 *23995:A1 *192:23 7.67248e-05
26 *89:80 *192:34 0.00174871
27 *89:84 *192:34 0.00010018
28 *89:88 *192:23 1.22822e-05
29 *89:88 *192:34 4.95081e-05
30 *89:113 *192:23 9.01552e-05
31 *103:27 *192:12 2.65879e-05
32 *103:36 *192:12 1.14762e-05
33 *103:36 *192:23 6.68677e-05
34 *103:53 *192:23 0.000873844
35 *107:14 *192:8 0
36 *162:10 *192:34 0
37 *162:18 *192:34 0
38 *162:40 *192:34 0
*RES
1 *23994:Y *192:8 45.1879 
2 *192:8 *192:12 20.3857 
3 *192:12 *24090:C 23.4971 
4 *192:12 *192:23 17.3171 
5 *192:23 *23995:A2 23 
6 *192:23 *192:34 45.3671 
7 *192:34 *24003:B 38 
*END

*D_NET *193 0.00046806
*CONN
*I *23996:C1 I *D sky130_fd_sc_hd__o211a_1
*I *23995:Y O *D sky130_fd_sc_hd__o21ai_1
*CAP
1 *23996:C1 0
2 *23995:Y 0.000194756
3 *193:10 0.000194756
4 *193:10 *308:25 0
5 *89:84 *193:10 2.18409e-05
6 *89:88 *193:10 5.67058e-05
7 *89:127 *193:10 0
8 *89:133 *193:10 0
*RES
1 *23995:Y *193:10 41.3557 
2 *193:10 *23996:C1 38 
*END

*D_NET *194 0.0122908
*CONN
*I *23998:C1 I *D sky130_fd_sc_hd__o211a_1
*I *24000:A1 I *D sky130_fd_sc_hd__a21oi_1
*I *24080:A2 I *D sky130_fd_sc_hd__a21oi_2
*I *23997:Y O *D sky130_fd_sc_hd__nand2_1
*CAP
1 *23998:C1 7.0195e-05
2 *24000:A1 0
3 *24080:A2 0.00136605
4 *23997:Y 0
5 *194:56 0.000925551
6 *194:37 0.00159155
7 *194:16 0.00206175
8 *194:4 0.00143189
9 *23998:C1 *308:86 0.00023232
10 *23998:C1 *359:29 0.000127804
11 *23998:C1 *442:23 0
12 *24080:A2 *24007:C_N 4.68377e-05
13 *24080:A2 *24223:A 3.22879e-05
14 *24080:A2 *24316:A 0.000318946
15 *24080:A2 *200:8 0.00018282
16 *24080:A2 *264:8 3.47781e-05
17 *24080:A2 *362:10 2.65879e-05
18 *24080:A2 *374:18 5.3304e-05
19 *24080:A2 *400:27 0.0002922
20 *24080:A2 *400:31 0.00014196
21 *24080:A2 *423:16 2.02872e-05
22 *194:16 *364:29 0
23 *194:16 *375:10 4.23817e-05
24 *194:16 *437:23 0
25 *194:37 *24000:B1 0.000183733
26 *194:37 *308:25 0.00021356
27 *194:37 *364:37 0.000123919
28 *194:37 *365:19 5.76076e-05
29 *194:56 *23936:B2 6.4393e-05
30 *194:56 *24000:B1 9.84851e-05
31 *194:56 *308:86 1.56762e-05
32 *194:56 *317:10 5.3304e-05
33 *194:56 *326:10 0.000139346
34 *194:56 *359:29 0.000616664
35 *194:56 *364:37 9.42907e-05
36 *194:56 *366:16 5.50049e-05
37 *194:56 *366:55 0
38 *194:56 *434:10 1.58805e-05
39 *194:56 *434:27 0.000141692
40 *194:56 *442:8 0.00014196
41 *194:56 *442:23 0.000273129
42 *24080:A1 *24080:A2 0.00014196
43 *89:96 *194:16 5.56356e-05
44 *89:96 *194:37 7.15083e-05
45 *102:6 *24080:A2 5.50106e-05
46 *102:6 *194:16 8.82787e-05
47 *102:14 *24080:A2 0.000178517
48 *103:53 *194:16 0.00014255
49 *107:73 *194:56 0
50 *189:10 *24080:A2 4.02485e-05
51 *189:10 *194:16 0.000228903
*RES
1 *23997:Y *194:4 23 
2 *194:4 *194:16 43.0086 
3 *194:16 *24080:A2 49.0379 
4 *194:4 *194:37 41.8279 
5 *194:37 *24000:A1 23 
6 *194:37 *194:56 49.575 
7 *194:56 *23998:C1 26.6561 
*END

*D_NET *195 0.00150087
*CONN
*I *24000:A2 I *D sky130_fd_sc_hd__a21oi_1
*I *23999:Y O *D sky130_fd_sc_hd__nand2_1
*CAP
1 *24000:A2 0
2 *23999:Y 0.000516647
3 *195:10 0.000516647
4 *195:10 *24209:A 0
5 *195:10 *355:67 0.00019176
6 *195:10 *359:36 0
7 *195:10 *398:76 9.91798e-05
8 *195:10 *432:30 1.32939e-05
9 *105:59 *195:10 0.000163343
*RES
1 *23999:Y *195:10 48.4193 
2 *195:10 *24000:A2 38 
*END

*D_NET *196 0.000333925
*CONN
*I *24002:C1 I *D sky130_fd_sc_hd__o211a_1
*I *24001:Y O *D sky130_fd_sc_hd__nand2_1
*CAP
1 *24002:C1 0.000115319
2 *24001:Y 0.000115319
3 *24002:C1 *24001:A 1.32314e-05
4 *24002:C1 *24002:B1 2.02517e-05
5 *104:40 *24002:C1 6.9805e-05
*RES
1 *24001:Y *24002:C1 48.5686 
*END

*D_NET *197 0.000673686
*CONN
*I *24004:C1 I *D sky130_fd_sc_hd__o211a_1
*I *24003:X O *D sky130_fd_sc_hd__or2_1
*CAP
1 *24004:C1 3.04956e-05
2 *24003:X 0.000120914
3 *197:8 0.000151409
4 *24004:C1 *201:14 0.000185434
5 *24004:C1 *357:99 0.000185434
6 *89:159 *197:8 0
*RES
1 *24003:X *197:8 39.9057 
2 *197:8 *24004:C1 40.0507 
*END

*D_NET *198 0.00254577
*CONN
*I *24257:A I *D sky130_fd_sc_hd__dlygate4sd3_1
*I *24005:X O *D sky130_fd_sc_hd__a31o_1
*CAP
1 *24257:A 0.000282106
2 *24005:X 0.000333994
3 *198:8 0.0006161
4 *24257:A *24005:B1 0.000429611
5 *24257:A *24010:C 0.000139647
6 *24257:A *357:46 0.000140927
7 *24257:A *365:103 0.000137786
8 *24257:A *446:29 0.000278634
9 *198:8 *24005:B1 0.000103405
10 *198:8 *365:103 4.947e-05
11 *89:35 *198:8 3.40939e-05
*RES
1 *24005:X *198:8 42.9093 
2 *198:8 *24257:A 47.1143 
*END

*D_NET *199 0.00235051
*CONN
*I *24087:B I *D sky130_fd_sc_hd__or3b_1
*I *24089:A2 I *D sky130_fd_sc_hd__o21ai_1
*I *24006:X O *D sky130_fd_sc_hd__and2b_1
*CAP
1 *24087:B 0.000388576
2 *24089:A2 0.000150116
3 *24006:X 0.000238714
4 *199:10 0.000777406
5 *24087:B *23898:A 0.000188927
6 *24087:B *200:44 0
7 *24087:B *324:16 8.72173e-05
8 *24087:B *368:80 6.86012e-05
9 *24087:B *400:86 0.000139647
10 *24089:A2 *24089:B1 5.40241e-05
11 *199:10 *24006:B 3.7395e-05
12 *199:10 *200:44 0
13 *199:10 *362:91 0
14 *199:10 *400:86 0.000219882
*RES
1 *24006:X *199:10 42.5364 
2 *199:10 *24089:A2 40.0507 
3 *199:10 *24087:B 45.83 
*END

*D_NET *200 0.00790284
*CONN
*I *24008:B I *D sky130_fd_sc_hd__and2_2
*I *24083:B I *D sky130_fd_sc_hd__and3b_1
*I *24082:A1 I *D sky130_fd_sc_hd__a311oi_1
*I *24007:X O *D sky130_fd_sc_hd__or3b_1
*CAP
1 *24008:B 0
2 *24083:B 4.60261e-05
3 *24082:A1 0
4 *24007:X 0.000101737
5 *200:44 0.00124208
6 *200:22 0.000468963
7 *200:12 0.00097297
8 *200:8 0.0018018
9 *24083:B *368:44 1.59094e-05
10 *200:12 *24083:C 0.000115013
11 *200:12 *24084:A2 0.000141879
12 *200:12 *24085:A1 1.12487e-05
13 *200:12 *24085:A2 0.000141888
14 *200:12 *264:10 0.000298283
15 *200:12 *264:12 5.09885e-05
16 *200:12 *307:34 0
17 *200:12 *362:37 0.000111852
18 *200:12 *423:16 3.70094e-05
19 *200:22 *24082:A2 0.000400198
20 *200:22 *24085:A2 0.000139647
21 *200:22 *265:10 6.70363e-05
22 *200:22 *368:44 4.57624e-05
23 *200:44 *24086:B 4.16139e-05
24 *200:44 *264:10 1.22803e-05
25 *200:44 *311:25 0
26 *200:44 *362:33 0.000186972
27 *200:44 *362:37 5.15096e-05
28 *200:44 *362:91 7.39713e-05
29 *200:44 *362:105 0
30 *200:44 *362:120 0
31 *200:44 *423:16 8.94487e-05
32 *200:44 *423:25 0
33 *200:44 *423:51 0
34 *501:DIODE *200:44 5.56356e-05
35 *24080:A2 *200:8 0.00018282
36 *24087:B *200:44 0
37 *62:10 *200:44 0.00023549
38 *90:118 *200:12 0
39 *90:133 *200:44 0
40 *90:141 *200:44 0.000323031
41 *99:31 *200:44 0.00043368
42 *99:59 *200:44 6.10551e-06
43 *199:10 *200:44 0
*RES
1 *24007:X *200:8 40.0507 
2 *200:8 *200:12 26.7657 
3 *200:12 *200:22 37.9129 
4 *200:22 *24082:A1 23 
5 *200:12 *24083:B 23.6214 
6 *200:8 *200:44 42.7157 
7 *200:44 *24008:B 23 
*END

*D_NET *201 0.0159738
*CONN
*I *24216:A I *D sky130_fd_sc_hd__clkbuf_4
*I *24141:C1 I *D sky130_fd_sc_hd__o211a_1
*I *24137:C1 I *D sky130_fd_sc_hd__o211a_1
*I *24133:B1 I *D sky130_fd_sc_hd__o211a_1
*I *24130:B1 I *D sky130_fd_sc_hd__o211a_1
*I *24008:X O *D sky130_fd_sc_hd__and2_2
*CAP
1 *24216:A 0.000310676
2 *24141:C1 0
3 *24137:C1 0
4 *24133:B1 0
5 *24130:B1 2.0995e-05
6 *24008:X 0.000310953
7 *201:51 0.000838999
8 *201:36 0.000951775
9 *201:27 0.000703124
10 *201:14 0.0029
11 *201:12 0.00228866
12 *201:10 0.000639255
13 *201:8 0.000639532
14 *24130:B1 *24130:A2 1.14154e-05
15 *24216:A *24010:A 0.000139346
16 *24216:A *24010:B 6.56058e-05
17 *24216:A *24010:C 6.33553e-05
18 *24216:A *203:8 5.68958e-05
19 *24216:A *365:97 9.03784e-05
20 *24216:A *365:103 0.000176541
21 *24216:A *446:42 0.000244517
22 *201:10 *365:103 0.000623269
23 *201:14 *24093:A1 5.67058e-05
24 *201:14 *24130:C1 5.50106e-05
25 *201:14 *271:10 0.00014196
26 *201:14 *357:40 0.000119313
27 *201:14 *357:46 0.000129
28 *201:14 *357:99 0.00093494
29 *201:14 *357:116 0.00117446
30 *201:14 *446:42 5.50106e-05
31 *201:27 *529:DIODE 9.98995e-05
32 *201:27 *24130:A1 0.000227208
33 *201:27 *24137:A1 0
34 *201:27 *297:26 0
35 *201:27 *357:116 3.22879e-05
36 *201:27 *357:131 0.000675193
37 *201:51 *24137:A1 9.13317e-06
38 *201:51 *297:26 6.07611e-06
39 *201:51 *300:10 8.51329e-05
40 *201:51 *390:36 0
41 *201:51 *462:10 0
42 *501:DIODE *201:8 0.000106277
43 *24004:C1 *201:14 0.000185434
44 *24093:A2 *201:14 0.000487147
45 *40:14 *201:51 6.78463e-05
46 *82:8 *201:51 0
47 *106:12 *24216:A 6.7177e-06
48 *106:12 *201:10 0.000243728
*RES
1 *24008:X *201:8 42.4329 
2 *201:8 *201:10 10.005 
3 *201:10 *201:12 15 
4 *201:12 *201:14 49.2171 
5 *201:14 *24130:B1 23.4971 
6 *201:14 *201:27 29.8521 
7 *201:27 *24133:B1 38 
8 *201:27 *201:36 1.57429 
9 *201:36 *24137:C1 38 
10 *201:36 *201:51 31.3021 
11 *201:51 *24141:C1 23 
12 *201:10 *24216:A 46.0993 
*END

*D_NET *202 0.00214283
*CONN
*I *24076:B1 I *D sky130_fd_sc_hd__a41o_1
*I *24009:Y O *D sky130_fd_sc_hd__inv_2
*CAP
1 *24076:B1 0.000143066
2 *24009:Y 0.000655785
3 *202:8 0.00079885
4 *24076:B1 *24076:A1 2.04774e-05
5 *24076:B1 *260:12 8.41012e-05
6 *24076:B1 *362:185 3.70094e-05
7 *24076:B1 *362:202 0.000351617
8 *24076:B1 *478:10 5.19255e-05
*RES
1 *24009:Y *202:8 48.15 
2 *202:8 *24076:B1 43.075 
*END

*D_NET *203 0.00341477
*CONN
*I *24018:C_N I *D sky130_fd_sc_hd__or3b_1
*I *24019:A I *D sky130_fd_sc_hd__xnor2_1
*I *24011:B I *D sky130_fd_sc_hd__nand2_1
*I *24010:X O *D sky130_fd_sc_hd__and3_1
*CAP
1 *24018:C_N 0.000197883
2 *24019:A 0.000258514
3 *24011:B 0.000245697
4 *24010:X 0.000199271
5 *203:23 0.000512908
6 *203:8 0.000501479
7 *24011:B *24011:A 4.67488e-05
8 *24011:B *357:48 0.000199701
9 *24011:B *357:76 0.000263098
10 *24011:B *409:8 0.000116314
11 *24018:C_N *24021:A1 0
12 *24018:C_N *206:27 0
13 *24018:C_N *357:76 0.000223043
14 *203:8 *354:6 8.91468e-07
15 *203:23 *357:76 0.000139647
16 *24216:A *203:8 5.68958e-05
17 *90:159 *24011:B 0.000177822
18 *90:159 *24018:C_N 0.000210557
19 *90:159 *203:23 6.43005e-05
*RES
1 *24010:X *203:8 40.5271 
2 *203:8 *24011:B 45.7264 
3 *203:8 *203:23 1.90571 
4 *203:23 *24019:A 41.9564 
5 *203:23 *24018:C_N 43.7793 
*END

*D_NET *204 0.000973918
*CONN
*I *24012:C I *D sky130_fd_sc_hd__and3_1
*I *24011:Y O *D sky130_fd_sc_hd__nand2_1
*CAP
1 *24012:C 1.36535e-05
2 *24011:Y 0.000274967
3 *204:10 0.000288621
4 *24012:C *24164:CLK 9.70259e-06
5 *204:10 *24011:A 5.67058e-05
6 *204:10 *24012:B 8.4047e-05
7 *24258:A *204:10 4.96717e-05
8 *90:159 *204:10 0
9 *95:36 *204:10 0.000196549
*RES
1 *24011:Y *204:10 43.1371 
2 *204:10 *24012:C 38.2279 
*END

*D_NET *205 0.00192881
*CONN
*I *24022:A2 I *D sky130_fd_sc_hd__a21bo_1
*I *24015:B I *D sky130_fd_sc_hd__and3_1
*I *24016:A1 I *D sky130_fd_sc_hd__a21oi_1
*I *24013:X O *D sky130_fd_sc_hd__a22o_1
*CAP
1 *24022:A2 0.000120065
2 *24015:B 0.000265716
3 *24016:A1 8.36025e-05
4 *24013:X 3.90016e-05
5 *205:19 0.000427809
6 *205:8 0.000164633
7 *24015:B *24018:B 5.3304e-05
8 *24015:B *206:14 4.39607e-05
9 *24015:B *208:6 9.5877e-05
10 *24016:A1 *206:14 2.93747e-05
11 *24022:A2 *210:10 4.06408e-05
12 *24022:A2 *213:14 1.94693e-05
13 *24022:A2 *387:12 7.53384e-06
14 *205:8 *206:8 8.62783e-05
15 *205:19 *206:8 5.24393e-05
16 *205:19 *210:10 2.72055e-05
17 *106:16 *24022:A2 0.000139647
18 *106:16 *205:8 8.62783e-05
19 *106:16 *205:19 0.000145969
*RES
1 *24013:X *205:8 39.2014 
2 *205:8 *24016:A1 39.0979 
3 *205:8 *205:19 1.90571 
4 *205:19 *24015:B 41.48 
5 *205:19 *24022:A2 41.0036 
*END

*D_NET *206 0.00161025
*CONN
*I *24016:A2 I *D sky130_fd_sc_hd__a21oi_1
*I *24022:B1_N I *D sky130_fd_sc_hd__a21bo_1
*I *24015:C I *D sky130_fd_sc_hd__and3_1
*I *24014:Y O *D sky130_fd_sc_hd__nand4_1
*CAP
1 *24016:A2 0
2 *24022:B1_N 0
3 *24015:C 5.05046e-06
4 *24014:Y 7.78566e-05
5 *206:27 0.000145069
6 *206:14 0.000277158
7 *206:10 0.000127038
8 *206:8 7.78566e-05
9 *24015:C *24018:B 2.12126e-06
10 *24015:C *210:8 2.07921e-05
11 *206:8 *24021:A1 0
12 *206:8 *210:10 3.0647e-05
13 *206:14 *24016:B1 5.67058e-05
14 *206:14 *24018:B 2.93845e-05
15 *206:14 *208:6 4.5051e-05
16 *206:14 *210:8 3.75074e-05
17 *206:14 *404:29 5.50106e-05
18 *206:27 *24017:A 0.000138718
19 *206:27 *24018:A 5.94125e-05
20 *206:27 *24021:A1 1.01436e-05
21 *206:27 *208:25 0.000163352
22 *206:27 *404:14 3.9325e-05
23 *24015:B *206:14 4.39607e-05
24 *24016:A1 *206:14 2.93747e-05
25 *24018:C_N *206:27 0
26 *205:8 *206:8 8.62783e-05
27 *205:19 *206:8 5.24393e-05
*RES
1 *24014:Y *206:8 39.9057 
2 *206:8 *206:10 15 
3 *206:10 *206:14 3.50071 
4 *206:14 *24015:C 23.2279 
5 *206:14 *206:27 33.3143 
6 *206:27 *24022:B1_N 23 
7 *206:10 *24016:A2 23 
*END

*D_NET *207 0.00164166
*CONN
*I *24017:A I *D sky130_fd_sc_hd__nor2_1
*I *24018:A I *D sky130_fd_sc_hd__or3b_1
*I *24015:X O *D sky130_fd_sc_hd__and3_1
*CAP
1 *24017:A 0.000262527
2 *24018:A 0.000117256
3 *24015:X 4.34896e-05
4 *207:8 0.000423272
5 *24017:A *208:25 0.000178147
6 *24017:A *360:30 8.62876e-05
7 *24017:A *360:55 5.01986e-05
8 *24018:A *24018:B 0.000188927
9 *24018:A *210:8 3.77997e-05
10 *207:8 *24018:B 5.56279e-05
11 *90:159 *24017:A 0
12 *206:27 *24017:A 0.000138718
13 *206:27 *24018:A 5.94125e-05
*RES
1 *24015:X *207:8 38.6214 
2 *207:8 *24018:A 41.3764 
3 *207:8 *24017:A 44.2971 
*END

*D_NET *208 0.00235908
*CONN
*I *24017:B I *D sky130_fd_sc_hd__nor2_1
*I *24018:B I *D sky130_fd_sc_hd__or3b_1
*I *24016:Y O *D sky130_fd_sc_hd__a21oi_1
*CAP
1 *24017:B 0
2 *24018:B 0.00014261
3 *24016:Y 3.25632e-05
4 *208:25 0.000414898
5 *208:6 0.000590071
6 *24018:B *210:8 6.93596e-06
7 *208:25 *209:8 4.84129e-06
8 *208:25 *210:10 7.4564e-05
9 *208:25 *360:16 5.3304e-05
10 *208:25 *360:30 8.4047e-05
11 *208:25 *360:55 3.47781e-05
12 *208:25 *404:14 0.000108681
13 *24015:B *24018:B 5.3304e-05
14 *24015:B *208:6 9.5877e-05
15 *24015:C *24018:B 2.12126e-06
16 *24017:A *208:25 0.000178147
17 *24018:A *24018:B 0.000188927
18 *206:14 *24018:B 2.93845e-05
19 *206:14 *208:6 4.5051e-05
20 *206:27 *208:25 0.000163352
21 *207:8 *24018:B 5.56279e-05
*RES
1 *24016:Y *208:6 24.0979 
2 *208:6 *24018:B 26.5007 
3 *208:6 *208:25 38.7 
4 *208:25 *24017:B 23 
*END

*D_NET *209 0.0020823
*CONN
*I *24019:B I *D sky130_fd_sc_hd__xnor2_1
*I *24017:Y O *D sky130_fd_sc_hd__nor2_1
*CAP
1 *24019:B 0.000535661
2 *24017:Y 0.000321245
3 *209:8 0.000856906
4 *24019:B *24021:B1 0.000225265
5 *24019:B *211:10 1.34354e-05
6 *24019:B *212:10 7.90568e-05
7 *24019:B *354:32 0
8 *24019:B *362:170 0
9 *51:10 *24019:B 4.58924e-05
10 *208:25 *209:8 4.84129e-06
*RES
1 *24017:Y *209:8 42.9093 
2 *209:8 *24019:B 49.7657 
*END

*D_NET *210 0.00467217
*CONN
*I *24029:A I *D sky130_fd_sc_hd__nor3_1
*I *24030:B1 I *D sky130_fd_sc_hd__o21a_1
*I *24018:X O *D sky130_fd_sc_hd__or3b_1
*CAP
1 *24029:A 0.000223096
2 *24030:B1 9.7207e-05
3 *24018:X 0.000225759
4 *210:29 0.000898463
5 *210:10 0.00115411
6 *210:8 0.000607292
7 *24029:A *218:43 4.67488e-05
8 *24030:B1 *221:8 2.64616e-05
9 *210:8 *24016:B1 4.34745e-05
10 *210:8 *404:29 5.50106e-05
11 *210:10 *24021:A1 9.48381e-06
12 *210:10 *213:14 0.000166962
13 *210:10 *360:55 7.39745e-05
14 *210:10 *387:8 0.000111852
15 *210:10 *404:14 8.46249e-05
16 *210:29 *24028:B1 0.000130433
17 *210:29 *213:14 0.000138727
18 *210:29 *354:34 1.56673e-05
19 *210:29 *354:65 9.24795e-06
20 *210:29 *356:14 0.000106288
21 *210:29 *360:55 5.33917e-05
22 *24015:C *210:8 2.07921e-05
23 *24018:A *210:8 3.77997e-05
24 *24018:B *210:8 6.93596e-06
25 *24022:A2 *210:10 4.06408e-05
26 *24313:A *210:29 0.000117809
27 *90:159 *210:29 0
28 *106:16 *210:10 0
29 *205:19 *210:10 2.72055e-05
30 *206:8 *210:10 3.0647e-05
31 *206:14 *210:8 3.75074e-05
32 *208:25 *210:10 7.4564e-05
*RES
1 *24018:X *210:8 41.48 
2 *210:8 *210:10 9.65286 
3 *210:10 *24030:B1 39.5743 
4 *210:10 *210:29 41.6621 
5 *210:29 *24029:A 41.0036 
*END

*D_NET *211 0.00130061
*CONN
*I *24020:B I *D sky130_fd_sc_hd__nand2_1
*I *24019:Y O *D sky130_fd_sc_hd__xnor2_1
*CAP
1 *24020:B 0.000135839
2 *24019:Y 0.000204451
3 *211:10 0.000340291
4 *24020:B *24020:A 9.84794e-05
5 *24020:B *212:10 2.18506e-05
6 *211:10 *24021:B1 7.90568e-05
7 *211:10 *212:10 0.000169674
8 *211:10 *362:170 6.78463e-05
9 *211:10 *405:8 0.000169683
10 *24019:B *211:10 1.34354e-05
*RES
1 *24019:Y *211:10 43.6964 
2 *211:10 *24020:B 40.5479 
*END

*D_NET *212 0.00077608
*CONN
*I *24021:C1 I *D sky130_fd_sc_hd__o211a_1
*I *24020:Y O *D sky130_fd_sc_hd__nand2_1
*CAP
1 *24021:C1 0
2 *24020:Y 0.000177354
3 *212:10 0.000177354
4 *212:10 *24020:A 0.000139346
5 *212:10 *24021:B1 1.14452e-05
6 *24019:B *212:10 7.90568e-05
7 *24020:B *212:10 2.18506e-05
8 *211:10 *212:10 0.000169674
*RES
1 *24020:Y *212:10 42.3086 
2 *212:10 *24021:C1 38 
*END

*D_NET *213 0.00371072
*CONN
*I *24028:B1 I *D sky130_fd_sc_hd__a21oi_1
*I *24027:A I *D sky130_fd_sc_hd__and3_1
*I *24022:X O *D sky130_fd_sc_hd__a21bo_1
*CAP
1 *24028:B1 0.000188814
2 *24027:A 0.000508812
3 *24022:X 0.000319986
4 *213:14 0.00101761
5 *24027:A *24026:B1 4.96717e-05
6 *24027:A *214:29 5.12055e-06
7 *24027:A *217:12 2.80924e-06
8 *24027:A *217:29 5.97296e-05
9 *24027:A *354:65 0.000181125
10 *24027:A *354:82 7.27182e-05
11 *24028:B1 *24028:A1 0
12 *24028:B1 *24029:C 0.000109396
13 *24028:B1 *24032:A 0.000139352
14 *24028:B1 *24033:A2 0.000218407
15 *24028:B1 *356:14 6.03405e-05
16 *213:14 *387:8 8.85189e-05
17 *24022:A2 *213:14 1.94693e-05
18 *106:16 *24028:B1 1.34354e-05
19 *106:16 *213:14 0.00021928
20 *210:10 *213:14 0.000166962
21 *210:29 *24028:B1 0.000130433
22 *210:29 *213:14 0.000138727
*RES
1 *24022:X *213:14 46.2236 
2 *213:14 *24027:A 45.3121 
3 *213:14 *24028:B1 43.7379 
*END

*D_NET *214 0.00300298
*CONN
*I *24037:A2 I *D sky130_fd_sc_hd__a21boi_2
*I *24026:A1 I *D sky130_fd_sc_hd__a21o_1
*I *24025:B I *D sky130_fd_sc_hd__nand3_1
*I *24023:X O *D sky130_fd_sc_hd__a22o_1
*CAP
1 *24037:A2 0.000220772
2 *24026:A1 0
3 *24025:B 8.32922e-05
4 *24023:X 0.000297639
5 *214:29 0.000167267
6 *214:14 0.000335421
7 *214:12 0.000305633
8 *214:10 0.000297639
9 *24025:B *24025:C 5.50049e-05
10 *24025:B *24028:A1 3.22879e-05
11 *24037:A2 *24035:A2 0
12 *24037:A2 *24037:B1_N 4.2573e-05
13 *24037:A2 *227:10 5.67058e-05
14 *24037:A2 *411:27 0.000118143
15 *214:10 *24024:D 5.67058e-05
16 *214:10 *215:10 6.09535e-05
17 *214:10 *215:23 0.000113666
18 *214:10 *217:29 6.10781e-05
19 *214:10 *218:54 0.000101657
20 *214:10 *447:25 0
21 *214:14 *24025:C 4.08664e-05
22 *214:14 *24037:B1_N 9.67842e-05
23 *214:29 *24026:B1 0
24 *214:29 *215:10 2.22179e-05
25 *214:29 *215:23 0.000229473
26 *214:29 *218:43 2.82419e-06
27 *214:29 *345:12 0
28 *214:29 *411:27 0.000199252
29 *24027:A *214:29 5.12055e-06
*RES
1 *24023:X *214:10 44.0486 
2 *214:10 *214:12 15 
3 *214:12 *214:14 1.57429 
4 *214:14 *24025:B 24.5743 
5 *214:14 *214:29 34.1636 
6 *214:29 *24026:A1 23 
7 *214:12 *24037:A2 27.8057 
*END

*D_NET *215 0.00170182
*CONN
*I *24037:B1_N I *D sky130_fd_sc_hd__a21boi_2
*I *24025:C I *D sky130_fd_sc_hd__nand3_1
*I *24026:A2 I *D sky130_fd_sc_hd__a21o_1
*I *24024:Y O *D sky130_fd_sc_hd__nand4_1
*CAP
1 *24037:B1_N 4.19098e-05
2 *24025:C 4.48441e-05
3 *24026:A2 8.16731e-06
4 *24024:Y 0.000172852
5 *215:23 0.000206924
6 *215:10 0.000301189
7 *24025:C *411:27 4.67488e-05
8 *24037:B1_N *411:27 6.82611e-05
9 *215:10 *24024:D 9.84851e-05
10 *215:10 *411:27 5.0899e-05
11 *24025:B *24025:C 5.50049e-05
12 *24037:A2 *24037:B1_N 4.2573e-05
13 *214:10 *215:10 6.09535e-05
14 *214:10 *215:23 0.000113666
15 *214:14 *24025:C 4.08664e-05
16 *214:14 *24037:B1_N 9.67842e-05
17 *214:29 *215:10 2.22179e-05
18 *214:29 *215:23 0.000229473
*RES
1 *24024:Y *215:10 40.988 
2 *215:10 *24026:A2 38.1605 
3 *215:10 *215:23 18.3298 
4 *215:23 *24025:C 24.0979 
5 *215:23 *24037:B1_N 24.5743 
*END

*D_NET *216 0.00146316
*CONN
*I *24028:A1 I *D sky130_fd_sc_hd__a21oi_1
*I *24027:B I *D sky130_fd_sc_hd__and3_1
*I *24025:Y O *D sky130_fd_sc_hd__nand3_1
*CAP
1 *24028:A1 0.000198584
2 *24027:B 0
3 *24025:Y 0
4 *216:12 0.000258404
5 *216:4 0.000456988
6 *24028:A1 *24029:C 0
7 *24028:A1 *24032:A 7.84283e-05
8 *216:12 *218:10 0.000263657
9 *216:12 *218:43 8.85189e-05
10 *216:12 *411:27 8.62876e-05
11 *24025:B *24028:A1 3.22879e-05
12 *24028:B1 *24028:A1 0
*RES
1 *24025:Y *216:4 23 
2 *216:4 *216:12 34.205 
3 *216:12 *24027:B 23 
4 *216:4 *24028:A1 26.8736 
*END

*D_NET *217 0.00156932
*CONN
*I *24027:C I *D sky130_fd_sc_hd__and3_1
*I *24028:A2 I *D sky130_fd_sc_hd__a21oi_1
*I *24026:X O *D sky130_fd_sc_hd__a21o_1
*CAP
1 *24027:C 0
2 *24028:A2 0
3 *24026:X 0
4 *217:29 0.000247173
5 *217:12 0.000198066
6 *217:4 0.000445239
7 *217:12 *24026:B1 7.54991e-05
8 *217:12 *219:27 4.08537e-05
9 *217:12 *354:82 1.94693e-05
10 *217:29 *24026:B1 9.5877e-05
11 *217:29 *218:10 0.000305851
12 *217:29 *447:25 0
13 *24027:A *217:12 2.80924e-06
14 *24027:A *217:29 5.97296e-05
15 *106:16 *217:12 1.76693e-05
16 *214:10 *217:29 6.10781e-05
*RES
1 *24026:X *217:4 23 
2 *217:4 *217:12 33.3557 
3 *217:12 *24028:A2 23 
4 *217:4 *217:29 35.8829 
5 *217:29 *24027:C 23 
*END

*D_NET *218 0.00914997
*CONN
*I *24051:A1 I *D sky130_fd_sc_hd__a22o_1
*I *24052:C I *D sky130_fd_sc_hd__and4bb_1
*I *24041:A I *D sky130_fd_sc_hd__nand2_1
*I *24040:A I *D sky130_fd_sc_hd__nor2_1
*I *24029:B I *D sky130_fd_sc_hd__nor3_1
*I *24030:A1 I *D sky130_fd_sc_hd__o21a_1
*I *24027:X O *D sky130_fd_sc_hd__and3_1
*CAP
1 *24051:A1 0
2 *24052:C 0
3 *24041:A 9.25389e-06
4 *24040:A 0.000166934
5 *24029:B 0
6 *24030:A1 0.000343841
7 *24027:X 3.66931e-05
8 *218:86 0.00021123
9 *218:78 0.000346634
10 *218:56 0.000257648
11 *218:54 0.000877405
12 *218:43 0.000894333
13 *218:10 0.00138476
14 *218:6 0.000843824
15 *24030:A1 *24024:B 1.01436e-05
16 *24030:A1 *24024:D 7.69576e-05
17 *24030:A1 *24026:B1 6.01895e-05
18 *24030:A1 *219:27 0
19 *24030:A1 *354:82 4.79458e-06
20 *24030:A1 *363:52 3.63084e-05
21 *24030:A1 *411:27 6.66707e-05
22 *24040:A *24040:B 2.02517e-05
23 *24040:A *24053:A1 3.22879e-05
24 *24041:A *24053:A1 1.14154e-05
25 *218:43 *24026:B1 0.000140055
26 *218:43 *24029:C 1.00493e-05
27 *218:43 *220:10 6.78555e-05
28 *218:43 *354:82 3.33993e-05
29 *218:43 *360:55 3.7122e-06
30 *218:43 *411:27 2.48107e-05
31 *218:54 *24050:B1 0.000351617
32 *218:54 *24053:A2 3.47781e-05
33 *218:54 *227:10 0.00056673
34 *218:54 *227:21 0.000203416
35 *218:54 *239:10 0
36 *218:54 *345:12 0
37 *218:54 *345:45 0
38 *218:54 *447:25 0
39 *218:56 *24053:A1 3.22879e-05
40 *218:56 *238:12 5.3304e-05
41 *218:78 *24038:B 0
42 *218:78 *24053:B1 0.000108022
43 *218:78 *238:12 0.000345868
44 *218:78 *240:6 4.6595e-05
45 *218:86 *24052:D 8.60475e-05
46 *218:86 *229:27 1.34354e-05
47 *218:86 *229:29 0.000140259
48 *218:86 *239:10 4.21594e-06
49 *218:86 *240:21 7.8128e-05
50 *218:86 *241:14 0.000140259
51 *218:86 *353:86 0.000164291
52 *24029:A *218:43 4.67488e-05
53 *214:10 *218:54 0.000101657
54 *214:29 *218:43 2.82419e-06
55 *216:12 *218:10 0.000263657
56 *216:12 *218:43 8.85189e-05
57 *217:29 *218:10 0.000305851
*RES
1 *24027:X *218:6 23.6214 
2 *218:6 *218:10 18.9564 
3 *218:10 *24030:A1 44.1521 
4 *218:10 *218:43 37.4664 
5 *218:43 *24029:B 23 
6 *218:6 *218:54 45.9914 
7 *218:54 *218:56 1.57429 
8 *218:56 *24040:A 26.0243 
9 *218:56 *24041:A 23.4971 
10 *218:54 *218:78 5.075 
11 *218:78 *218:86 35.9657 
12 *218:86 *24052:C 23 
13 *218:78 *24051:A1 23 
*END

*D_NET *219 0.00161355
*CONN
*I *24030:A2 I *D sky130_fd_sc_hd__o21a_1
*I *24029:C I *D sky130_fd_sc_hd__nor3_1
*I *24028:Y O *D sky130_fd_sc_hd__a21oi_1
*CAP
1 *24030:A2 0
2 *24029:C 0.000230122
3 *24028:Y 0
4 *219:27 0.000274959
5 *219:4 0.000505081
6 *24029:C *360:55 2.2786e-05
7 *24029:C *360:68 5.45096e-05
8 *219:27 *24024:B 0
9 *219:27 *24026:B1 0
10 *219:27 *24032:A 8.06804e-06
11 *219:27 *354:82 6.12496e-06
12 *24028:A1 *24029:C 0
13 *24028:B1 *24029:C 0.000109396
14 *24030:A1 *219:27 0
15 *106:16 *219:27 0.000351599
16 *217:12 *219:27 4.08537e-05
17 *218:43 *24029:C 1.00493e-05
*RES
1 *24028:Y *219:4 23 
2 *219:4 *24029:C 27.6711 
3 *219:4 *219:27 35.3443 
4 *219:27 *24030:A2 23 
*END

*D_NET *220 0.00632199
*CONN
*I *24042:A I *D sky130_fd_sc_hd__nand2_1
*I *24057:A1 I *D sky130_fd_sc_hd__a31o_1
*I *24040:B I *D sky130_fd_sc_hd__nor2_1
*I *24031:A I *D sky130_fd_sc_hd__nor2_1
*I *24029:Y O *D sky130_fd_sc_hd__nor3_1
*CAP
1 *24042:A 0
2 *24057:A1 0.000355439
3 *24040:B 0.00031394
4 *24031:A 0.000178808
5 *24029:Y 0.000232955
6 *220:48 0.000673017
7 *220:31 0.00098485
8 *220:18 0.00083836
9 *220:10 0.000539175
10 *24031:A *222:8 9.46717e-05
11 *24040:B *356:120 0.000119467
12 *24057:A1 *24042:B 0.000269775
13 *24057:A1 *229:39 0.000384014
14 *24057:A1 *353:98 0.00013961
15 *220:10 *24031:B 0.000208592
16 *220:18 *354:40 0.000167708
17 *220:18 *356:14 0.000148201
18 *220:18 *360:68 9.03157e-05
19 *220:31 *354:40 0.000152563
20 *220:31 *356:105 0
21 *220:31 *360:68 8.26672e-05
22 *220:48 *353:98 0
23 *220:48 *356:105 0
24 *24040:A *24040:B 2.02517e-05
25 *24289:A *220:48 5.50049e-05
26 *53:8 *220:48 7.28526e-05
27 *77:16 *220:31 4.92616e-05
28 *77:16 *220:48 8.26312e-05
29 *218:43 *220:10 6.78555e-05
*RES
1 *24029:Y *220:10 42.06 
2 *220:10 *220:18 36.4214 
3 *220:18 *24031:A 41.0243 
4 *220:18 *220:31 7.54 
5 *220:31 *24040:B 43.4064 
6 *220:31 *220:48 22.1464 
7 *220:48 *24057:A1 32.86 
8 *220:48 *24042:A 23 
*END

*D_NET *221 0.00233204
*CONN
*I *24031:B I *D sky130_fd_sc_hd__nor2_1
*I *24030:X O *D sky130_fd_sc_hd__o21a_1
*CAP
1 *24031:B 0.000422089
2 *24030:X 0.000252371
3 *221:8 0.00067446
4 *24031:B *354:40 0.000714321
5 *24031:B *360:55 3.3746e-05
6 *24030:B1 *221:8 2.64616e-05
7 *90:159 *24031:B 0
8 *220:10 *24031:B 0.000208592
*RES
1 *24030:X *221:8 41.0036 
2 *221:8 *24031:B 48.7093 
*END

*D_NET *222 0.00199239
*CONN
*I *24033:A2 I *D sky130_fd_sc_hd__o211a_1
*I *24031:Y O *D sky130_fd_sc_hd__nor2_1
*CAP
1 *24033:A2 0.000271521
2 *24031:Y 0.000249958
3 *222:8 0.000521478
4 *24033:A2 *223:8 0.000171906
5 *24033:A2 *356:14 1.06734e-05
6 *24033:A2 *356:25 0.000139647
7 *24033:A2 *360:68 0.000190205
8 *24028:B1 *24033:A2 0.000218407
9 *24031:A *222:8 9.46717e-05
10 *106:16 *24033:A2 0.000123919
*RES
1 *24031:Y *222:8 41.9564 
2 *222:8 *24033:A2 46.5964 
*END

*D_NET *223 0.000431089
*CONN
*I *24033:B1 I *D sky130_fd_sc_hd__o211a_1
*I *24032:X O *D sky130_fd_sc_hd__or2_1
*CAP
1 *24033:B1 0
2 *24032:X 4.36392e-05
3 *223:8 4.36392e-05
4 *24033:A2 *223:8 0.000171906
5 *106:16 *223:8 0.000171906
*RES
1 *24032:X *223:8 40.2579 
2 *223:8 *24033:B1 38 
*END

*D_NET *224 0.00379039
*CONN
*I *24064:A3 I *D sky130_fd_sc_hd__a31o_1
*I *24047:B I *D sky130_fd_sc_hd__and2_1
*I *24048:B I *D sky130_fd_sc_hd__nor2_1
*I *24049:B I *D sky130_fd_sc_hd__xnor2_1
*I *24036:A I *D sky130_fd_sc_hd__or2_2
*I *24034:X O *D sky130_fd_sc_hd__and3_1
*CAP
1 *24064:A3 0.000269015
2 *24047:B 1.49804e-05
3 *24048:B 0.000119391
4 *24049:B 2.95011e-05
5 *24036:A 7.89125e-05
6 *24034:X 0.000289208
7 *224:47 0.000628561
8 *224:32 0.000621022
9 *224:21 0.000530586
10 *224:8 0.00071214
11 *24036:A *226:6 3.22879e-05
12 *24047:B *361:61 5.50106e-05
13 *24047:B *475:75 5.50106e-05
14 *24049:B *24049:A 5.50106e-05
15 *24064:A3 *24072:A2 1.14452e-05
16 *24064:A3 *236:14 2.18409e-05
17 *24064:A3 *252:16 0.000112665
18 *24064:A3 *253:14 0.000137651
19 *24064:A3 *347:8 0
20 *24064:A3 *347:48 0
21 *224:8 *24034:B 6.07611e-06
22 *224:8 *24036:B 0
23 *224:21 *475:10 0
24 *224:32 *475:10 0
25 *224:32 *475:21 0
26 *224:47 *347:8 0
27 *224:47 *475:21 0
28 *105:42 *24064:A3 1.00765e-05
29 *105:42 *224:8 0
30 *105:42 *224:21 0
31 *105:42 *224:32 0
32 *105:42 *224:47 0
*RES
1 *24034:X *224:8 43.075 
2 *224:8 *24036:A 39.595 
3 *224:8 *224:21 5.77929 
4 *224:21 *24049:B 38.6214 
5 *224:21 *224:32 2.96214 
6 *224:32 *24048:B 40.0507 
7 *224:32 *224:47 6.54571 
8 *224:47 *24047:B 38.6214 
9 *224:47 *24064:A3 42.9507 
*END

*D_NET *225 0.00179229
*CONN
*I *24036:B I *D sky130_fd_sc_hd__or2_2
*I *24035:Y O *D sky130_fd_sc_hd__a21oi_1
*CAP
1 *24036:B 0.000414345
2 *24035:Y 0.0002269
3 *225:8 0.000641246
4 *24036:B *24034:B 0.000129024
5 *24036:B *24035:B1 0
6 *24036:B *306:73 0.000102425
7 *24036:B *321:25 0
8 *24036:B *363:78 0
9 *24036:B *363:107 3.0647e-05
10 *225:8 *24035:A2 7.88828e-05
11 *225:8 *363:95 0.000168821
12 *224:8 *24036:B 0
*RES
1 *24035:Y *225:8 42.9093 
2 *225:8 *24036:B 46.5964 
*END

*D_NET *226 0.00370661
*CONN
*I *24038:A I *D sky130_fd_sc_hd__nor2_1
*I *24039:A I *D sky130_fd_sc_hd__xor2_2
*I *24046:B I *D sky130_fd_sc_hd__or3b_1
*I *24050:A1 I *D sky130_fd_sc_hd__o21ai_1
*I *24036:X O *D sky130_fd_sc_hd__or2_2
*CAP
1 *24038:A 0
2 *24039:A 4.23445e-05
3 *24046:B 0.000145652
4 *24050:A1 0.000126815
5 *24036:X 0.000445447
6 *226:51 0.000284884
7 *226:23 0.000252246
8 *226:10 0.000425544
9 *226:6 0.00096481
10 *24039:A *239:10 1.09563e-05
11 *24039:A *353:86 5.80848e-05
12 *24050:A1 *227:21 0
13 *24050:A1 *239:10 2.76611e-06
14 *24050:A1 *309:12 5.67058e-05
15 *24050:A1 *309:149 0.000188077
16 *24050:A1 *321:25 0.000176355
17 *24050:A1 *353:86 9.03784e-05
18 *226:10 *321:25 2.72245e-05
19 *226:23 *239:10 2.68661e-05
20 *226:23 *353:86 0.000110373
21 *226:51 *24038:B 0
22 *226:51 *227:31 0
23 *226:51 *229:14 7.87484e-05
24 *226:51 *229:27 2.76611e-06
25 *226:51 *347:22 0
26 *226:51 *353:86 0
27 *24036:A *226:6 3.22879e-05
28 *187:20 *24046:B 0.00015728
*RES
1 *24036:X *226:6 28.8621 
2 *226:6 *226:10 18.0036 
3 *226:10 *24050:A1 42.6814 
4 *226:10 *226:23 1.55357 
5 *226:23 *24046:B 40.6929 
6 *226:23 *24039:A 38.8493 
7 *226:6 *226:51 34.7229 
8 *226:51 *24038:A 23 
*END

*D_NET *227 0.00397019
*CONN
*I *24046:A I *D sky130_fd_sc_hd__or3b_1
*I *24038:B I *D sky130_fd_sc_hd__nor2_1
*I *24039:B I *D sky130_fd_sc_hd__xor2_2
*I *24050:A2 I *D sky130_fd_sc_hd__o21ai_1
*I *24037:Y O *D sky130_fd_sc_hd__a21boi_2
*CAP
1 *24046:A 1.60348e-05
2 *24038:B 0.000189146
3 *24039:B 0
4 *24050:A2 0
5 *24037:Y 0.000336542
6 *227:31 0.000681381
7 *227:21 0.000670656
8 *227:10 0.000498928
9 *24038:B *24051:A2 5.3304e-05
10 *24038:B *228:10 7.53384e-06
11 *24038:B *229:14 0.000136598
12 *24038:B *229:27 2.46345e-05
13 *24038:B *238:12 2.32101e-05
14 *24038:B *240:6 5.3304e-05
15 *24038:B *353:86 0.000206587
16 *24046:A *347:22 9.84851e-05
17 *227:10 *309:149 0
18 *227:10 *353:86 0
19 *227:10 *447:25 0
20 *227:21 *239:10 0
21 *227:21 *309:149 0
22 *227:31 *353:86 4.68153e-05
23 *24037:A2 *227:10 5.67058e-05
24 *24050:A1 *227:21 0
25 *187:20 *24046:A 0.00010018
26 *218:54 *227:10 0.00056673
27 *218:54 *227:21 0.000203416
28 *218:78 *24038:B 0
29 *226:51 *24038:B 0
30 *226:51 *227:31 0
*RES
1 *24037:Y *227:10 46.1614 
2 *227:10 *24050:A2 38 
3 *227:10 *227:21 3.58357 
4 *227:21 *227:31 17.8231 
5 *227:31 *24039:B 15 
6 *227:31 *24038:B 42.5571 
7 *227:21 *24046:A 39.0979 
*END

*D_NET *228 0.00239651
*CONN
*I *24068:A3 I *D sky130_fd_sc_hd__a32o_1
*I *24058:A2 I *D sky130_fd_sc_hd__a21oi_1
*I *24038:Y O *D sky130_fd_sc_hd__nor2_1
*CAP
1 *24068:A3 0.000208294
2 *24058:A2 0
3 *24038:Y 0.000644811
4 *228:10 0.000853105
5 *24068:A3 *249:8 0.000163352
6 *24068:A3 *255:8 5.3304e-05
7 *24068:A3 *328:28 0.000139346
8 *24068:A3 *347:48 8.48502e-06
9 *24068:A3 *475:50 8.61927e-05
10 *228:10 *229:27 0
11 *228:10 *236:29 0
12 *228:10 *238:12 3.46673e-05
13 *228:10 *245:10 0
14 *228:10 *245:19 0
15 *228:10 *347:8 0
16 *228:10 *347:48 0
17 *228:10 *475:36 0.000164291
18 *228:10 *475:50 3.3123e-05
19 *24038:B *228:10 7.53384e-06
*RES
1 *24038:Y *228:10 49.9314 
2 *228:10 *24058:A2 38 
3 *228:10 *24068:A3 42.8886 
*END

*D_NET *229 0.00646853
*CONN
*I *24052:D I *D sky130_fd_sc_hd__and4bb_1
*I *24057:A2 I *D sky130_fd_sc_hd__a31o_1
*I *24042:B I *D sky130_fd_sc_hd__nand2_1
*I *24041:B I *D sky130_fd_sc_hd__nand2_1
*I *24043:A I *D sky130_fd_sc_hd__xnor2_1
*I *24051:A2 I *D sky130_fd_sc_hd__a22o_1
*I *24039:X O *D sky130_fd_sc_hd__xor2_2
*CAP
1 *24052:D 4.0521e-05
2 *24057:A2 0
3 *24042:B 0.000178027
4 *24041:B 0
5 *24043:A 0.000352436
6 *24051:A2 4.79365e-05
7 *24039:X 0.000247219
8 *229:41 0.000502511
9 *229:39 0.00048894
10 *229:29 0.000262593
11 *229:27 0.000338727
12 *229:14 0.000491606
13 *24042:B *356:120 0
14 *24043:A *24043:B 0.000568892
15 *24043:A *24050:B1 0
16 *24043:A *24053:A2 0
17 *24043:A *24121:B 1.57571e-05
18 *24043:A *230:8 0
19 *24043:A *234:10 0
20 *24043:A *353:98 0
21 *24051:A2 *238:12 7.35913e-05
22 *24051:A2 *240:6 2.02872e-05
23 *24052:D *245:10 6.17437e-06
24 *229:14 *347:22 0.000139352
25 *229:27 *347:8 0
26 *229:27 *353:86 6.07929e-05
27 *229:29 *241:14 5.91638e-05
28 *229:29 *245:10 7.88828e-05
29 *229:39 *241:14 1.24376e-05
30 *229:39 *353:90 0.000202654
31 *229:39 *353:98 0.000268074
32 *229:41 *24053:A2 0
33 *229:41 *242:8 0
34 *229:41 *353:98 0
35 *229:41 *356:120 0
36 *24038:B *24051:A2 5.3304e-05
37 *24038:B *229:14 0.000136598
38 *24038:B *229:27 2.46345e-05
39 *24057:A1 *24042:B 0.000269775
40 *24057:A1 *229:39 0.000384014
41 *187:20 *229:14 3.87132e-05
42 *187:22 *24043:A 0.000783662
43 *218:86 *24052:D 8.60475e-05
44 *218:86 *229:27 1.34354e-05
45 *218:86 *229:29 0.000140259
46 *226:51 *229:14 7.87484e-05
47 *226:51 *229:27 2.76611e-06
48 *228:10 *229:27 0
*RES
1 *24039:X *229:14 43.075 
2 *229:14 *24051:A2 39.0979 
3 *229:14 *229:27 18.3143 
4 *229:27 *229:29 3.00357 
5 *229:29 *229:39 21.525 
6 *229:39 *229:41 2.61 
7 *229:41 *24043:A 49.3307 
8 *229:41 *24041:B 38 
9 *229:39 *24042:B 41.8529 
10 *229:29 *24057:A2 23 
11 *229:27 *24052:D 24.0979 
*END

*D_NET *230 0.00143182
*CONN
*I *24043:B I *D sky130_fd_sc_hd__xnor2_1
*I *24040:Y O *D sky130_fd_sc_hd__nor2_1
*CAP
1 *24043:B 0.00020761
2 *24040:Y 0.000146419
3 *230:8 0.000354029
4 *24043:B *524:DIODE 0.000148698
5 *24043:B *24121:B 6.17437e-06
6 *230:8 *234:10 0
7 *24043:A *24043:B 0.000568892
8 *24043:A *230:8 0
*RES
1 *24040:Y *230:8 40.2579 
2 *230:8 *24043:B 44.3386 
*END

*D_NET *231 0.000200946
*CONN
*I *24053:A1 I *D sky130_fd_sc_hd__o21ai_1
*I *24041:Y O *D sky130_fd_sc_hd__nand2_1
*CAP
1 *24053:A1 6.04759e-05
2 *24041:Y 6.04759e-05
3 *24053:A1 *24053:B1 4.00259e-06
4 *24040:A *24053:A1 3.22879e-05
5 *24041:A *24053:A1 1.14154e-05
6 *218:56 *24053:A1 3.22879e-05
*RES
1 *24041:Y *24053:A1 47.595 
*END

*D_NET *232 0.000386965
*CONN
*I *24054:A I *D sky130_fd_sc_hd__xor2_1
*I *24042:Y O *D sky130_fd_sc_hd__nand2_1
*CAP
1 *24054:A 5.51761e-05
2 *24042:Y 0.000110804
3 *232:8 0.00016598
4 *24054:A *24054:B 5.50049e-05
5 *232:8 *356:120 0
*RES
1 *24042:Y *232:8 39.9057 
2 *232:8 *24054:A 39.0979 
*END

*D_NET *233 0.000932544
*CONN
*I *24045:A2 I *D sky130_fd_sc_hd__o211a_1
*I *24043:Y O *D sky130_fd_sc_hd__xnor2_1
*CAP
1 *24045:A2 0
2 *24043:Y 0.000213545
3 *233:10 0.000213545
4 *233:10 *234:10 0.000138727
5 *233:10 *356:105 0.000138727
6 *187:22 *233:10 0.000228001
*RES
1 *24043:Y *233:10 42.4329 
2 *233:10 *24045:A2 38 
*END

*D_NET *234 0.000831689
*CONN
*I *24045:B1 I *D sky130_fd_sc_hd__o211a_1
*I *24044:X O *D sky130_fd_sc_hd__or2_1
*CAP
1 *24045:B1 0
2 *24044:X 0.000265345
3 *234:10 0.000265345
4 *234:10 *309:12 5.67058e-05
5 *234:10 *353:98 6.07611e-06
6 *234:10 *356:105 9.94908e-05
7 *24043:A *234:10 0
8 *230:8 *234:10 0
9 *233:10 *234:10 0.000138727
*RES
1 *24044:X *234:10 43.3443 
2 *234:10 *24045:B1 38 
*END

*D_NET *235 0.000369094
*CONN
*I *24051:B1 I *D sky130_fd_sc_hd__a22o_1
*I *24046:X O *D sky130_fd_sc_hd__or3b_1
*CAP
1 *24051:B1 0
2 *24046:X 0.000113447
3 *235:10 0.000113447
4 *235:10 *239:10 5.21024e-05
5 *235:10 *347:22 3.79854e-05
6 *235:10 *353:86 5.21127e-05
*RES
1 *24046:X *235:10 40.175 
2 *235:10 *24051:B1 38 
*END

*D_NET *236 0.00530937
*CONN
*I *24066:C I *D sky130_fd_sc_hd__and3_1
*I *24052:A_N I *D sky130_fd_sc_hd__and4bb_1
*I *24058:B1 I *D sky130_fd_sc_hd__a21oi_1
*I *24047:X O *D sky130_fd_sc_hd__and2_1
*CAP
1 *24066:C 0.00027169
2 *24052:A_N 0
3 *24058:B1 6.67085e-05
4 *24047:X 0.000208247
5 *236:29 0.000293712
6 *236:14 0.000864043
7 *236:10 0.000983559
8 *24058:B1 *24061:A 0
9 *24058:B1 *252:16 2.3853e-05
10 *24058:B1 *258:10 1.57571e-05
11 *24066:C *24066:A 0.000338206
12 *24066:C *24070:A 0
13 *24066:C *256:10 0.000130127
14 *24066:C *257:10 0.000194318
15 *24066:C *328:10 3.11878e-05
16 *24066:C *354:227 0.000296427
17 *24066:C *475:75 5.46706e-05
18 *236:10 *361:61 0.000181925
19 *236:10 *475:75 8.4047e-05
20 *236:14 *24064:B1 1.24376e-05
21 *236:14 *252:16 0.000528019
22 *236:14 *253:14 3.83498e-05
23 *236:29 *347:8 0.000545275
24 *236:29 *347:48 7.48331e-05
25 *236:29 *475:36 5.0135e-05
26 *24064:A3 *236:14 2.18409e-05
27 *228:10 *236:29 0
*RES
1 *24047:X *236:10 41.2521 
2 *236:10 *236:14 22.7679 
3 *236:14 *24058:B1 24.1186 
4 *236:14 *236:29 38.2443 
5 *236:29 *24052:A_N 23 
6 *236:10 *24066:C 46.1614 
*END

*D_NET *237 0.000245672
*CONN
*I *24052:B_N I *D sky130_fd_sc_hd__and4bb_1
*I *24048:Y O *D sky130_fd_sc_hd__nor2_1
*CAP
1 *24052:B_N 0.000122836
2 *24048:Y 0.000122836
*RES
1 *24048:Y *24052:B_N 47.5743 
*END

*D_NET *238 0.00337135
*CONN
*I *24053:A2 I *D sky130_fd_sc_hd__o21ai_1
*I *24050:B1 I *D sky130_fd_sc_hd__o21ai_1
*I *24049:Y O *D sky130_fd_sc_hd__xnor2_1
*CAP
1 *24053:A2 4.49169e-05
2 *24050:B1 0.000214094
3 *24049:Y 0.000851278
4 *238:14 0.000259011
5 *238:12 0.000851278
6 *24053:A2 *239:10 0
7 *238:12 *24049:A 0.0002263
8 *238:12 *240:6 7.43025e-06
9 *24038:B *238:12 2.32101e-05
10 *24043:A *24050:B1 0
11 *24043:A *24053:A2 0
12 *24051:A2 *238:12 7.35913e-05
13 *218:54 *24050:B1 0.000351617
14 *218:54 *24053:A2 3.47781e-05
15 *218:56 *238:12 5.3304e-05
16 *218:78 *238:12 0.000345868
17 *228:10 *238:12 3.46673e-05
18 *229:41 *24053:A2 0
*RES
1 *24049:Y *238:12 37.1479 
2 *238:12 *238:14 15 
3 *238:14 *24050:B1 42.7229 
4 *238:14 *24053:A2 38.8493 
*END

*D_NET *239 0.00127032
*CONN
*I *24051:B2 I *D sky130_fd_sc_hd__a22o_1
*I *24050:Y O *D sky130_fd_sc_hd__o21ai_1
*CAP
1 *24051:B2 0
2 *24050:Y 0.000505462
3 *239:10 0.000505462
4 *239:10 *309:12 8.0689e-05
5 *239:10 *309:149 8.1796e-05
6 *239:10 *353:86 0
7 *24039:A *239:10 1.09563e-05
8 *24050:A1 *239:10 2.76611e-06
9 *24053:A2 *239:10 0
10 *218:54 *239:10 0
11 *218:86 *239:10 4.21594e-06
12 *226:23 *239:10 2.68661e-05
13 *227:21 *239:10 0
14 *235:10 *239:10 5.21024e-05
*RES
1 *24050:Y *239:10 45.7264 
2 *239:10 *24051:B2 38 
*END

*D_NET *240 0.00121128
*CONN
*I *24057:A3 I *D sky130_fd_sc_hd__a31o_1
*I *24053:B1 I *D sky130_fd_sc_hd__o21ai_1
*I *24051:X O *D sky130_fd_sc_hd__a22o_1
*CAP
1 *24057:A3 0
2 *24053:B1 0.000166918
3 *24051:X 0.000151038
4 *240:21 0.000115012
5 *240:6 0.000432968
6 *240:21 *241:14 2.75802e-05
7 *240:21 *242:8 0
8 *24038:B *240:6 5.3304e-05
9 *24051:A2 *240:6 2.02872e-05
10 *24053:A1 *24053:B1 4.00259e-06
11 *218:78 *24053:B1 0.000108022
12 *218:78 *240:6 4.6595e-05
13 *218:86 *240:21 7.8128e-05
14 *238:12 *240:6 7.43025e-06
*RES
1 *24051:X *240:6 25.5271 
2 *240:6 *24053:B1 26.5007 
3 *240:6 *240:21 32.2579 
4 *240:21 *24057:A3 23 
*END

*D_NET *241 0.000939659
*CONN
*I *24057:B1 I *D sky130_fd_sc_hd__a31o_1
*I *24052:X O *D sky130_fd_sc_hd__and4bb_1
*CAP
1 *24057:B1 0
2 *24052:X 0.000256938
3 *241:14 0.000256938
4 *241:14 *353:90 0.000180218
5 *241:14 *353:109 6.12496e-06
6 *218:86 *241:14 0.000140259
7 *229:29 *241:14 5.91638e-05
8 *229:39 *241:14 1.24376e-05
9 *240:21 *241:14 2.75802e-05
*RES
1 *24052:X *241:14 42.7436 
2 *241:14 *24057:B1 38 
*END

*D_NET *242 0.00161539
*CONN
*I *24054:B I *D sky130_fd_sc_hd__xor2_1
*I *24053:Y O *D sky130_fd_sc_hd__o21ai_1
*CAP
1 *24054:B 0.000371148
2 *24053:Y 0.000242847
3 *242:8 0.000613994
4 *24054:B *243:10 3.22879e-05
5 *242:8 *353:109 0.000300108
6 *242:8 *356:120 0
7 *24054:A *24054:B 5.50049e-05
8 *229:41 *242:8 0
9 *240:21 *242:8 0
*RES
1 *24053:Y *242:8 43.075 
2 *242:8 *24054:B 44.815 
*END

*D_NET *243 0.000866963
*CONN
*I *24056:A2 I *D sky130_fd_sc_hd__o211a_1
*I *24054:X O *D sky130_fd_sc_hd__xor2_1
*CAP
1 *24056:A2 0
2 *24054:X 0.000235802
3 *243:10 0.000235802
4 *243:10 *24074:B 0
5 *243:10 *244:10 1.14452e-05
6 *243:10 *356:120 0.000351626
7 *243:10 *361:65 0
8 *24054:B *243:10 3.22879e-05
*RES
1 *24054:X *243:10 43.3443 
2 *243:10 *24056:A2 38 
*END

*D_NET *244 0.000729782
*CONN
*I *24056:B1 I *D sky130_fd_sc_hd__o211a_1
*I *24055:X O *D sky130_fd_sc_hd__or2_1
*CAP
1 *24056:B1 0
2 *24055:X 0.000293931
3 *244:10 0.000293931
4 *244:10 *24063:A2 2.65879e-05
5 *244:10 *24074:B 0
6 *244:10 *347:48 0.00010018
7 *244:10 *356:133 0
8 *244:10 *360:113 3.70553e-06
9 *54:10 *244:10 0
10 *243:10 *244:10 1.14452e-05
*RES
1 *24055:X *244:10 42.785 
2 *244:10 *24056:B1 38 
*END

*D_NET *245 0.00231051
*CONN
*I *24068:B1 I *D sky130_fd_sc_hd__a32o_1
*I *24061:A I *D sky130_fd_sc_hd__or2_1
*I *24060:A I *D sky130_fd_sc_hd__nand2_1
*I *24057:X O *D sky130_fd_sc_hd__a31o_1
*CAP
1 *24068:B1 0.000242647
2 *24061:A 6.66772e-05
3 *24060:A 0
4 *24057:X 0.000377531
5 *245:19 0.000402996
6 *245:10 0.000471203
7 *24061:A *258:10 3.9622e-05
8 *24068:B1 *24063:A1 0
9 *24068:B1 *248:8 0.000228981
10 *24068:B1 *328:30 3.59013e-05
11 *24068:B1 *347:48 0.000100861
12 *24068:B1 *475:50 0.000165882
13 *245:19 *24060:B 0
14 *245:19 *248:8 8.85189e-05
15 *245:19 *475:50 4.6318e-06
16 *24052:D *245:10 6.17437e-06
17 *24058:B1 *24061:A 0
18 *228:10 *245:10 0
19 *228:10 *245:19 0
20 *229:29 *245:10 7.88828e-05
*RES
1 *24057:X *245:10 44.6493 
2 *245:10 *24060:A 38 
3 *245:10 *245:19 1.90571 
4 *245:19 *24061:A 39.1186 
5 *245:19 *24068:B1 43.5411 
*END

*D_NET *246 0.00109335
*CONN
*I *24059:B I *D sky130_fd_sc_hd__xnor2_1
*I *24058:Y O *D sky130_fd_sc_hd__a21oi_1
*CAP
1 *24059:B 0
2 *24058:Y 0.000313731
3 *246:8 0.000313731
4 *246:8 *24061:B 7.59794e-05
5 *246:8 *247:8 5.50106e-05
6 *246:8 *258:10 0.000334895
*RES
1 *24058:Y *246:8 29.3593 
2 *246:8 *24059:B 23 
*END

*D_NET *247 0.00137165
*CONN
*I *24068:B2 I *D sky130_fd_sc_hd__a32o_1
*I *24061:B I *D sky130_fd_sc_hd__or2_1
*I *24060:B I *D sky130_fd_sc_hd__nand2_1
*I *24059:Y O *D sky130_fd_sc_hd__xnor2_1
*CAP
1 *24068:B2 7.34689e-05
2 *24061:B 4.05375e-05
3 *24060:B 0.000179129
4 *24059:Y 4.24857e-05
5 *247:10 0.000272599
6 *247:8 0.000168887
7 *24060:B *248:8 4.23714e-05
8 *24060:B *328:45 6.07611e-06
9 *24060:B *353:109 0
10 *24060:B *361:61 9.84851e-05
11 *24061:B *258:10 0.000140259
12 *24068:B2 *248:8 4.23714e-05
13 *24068:B2 *328:45 6.32688e-05
14 *247:10 *248:8 2.64506e-05
15 *247:10 *328:45 4.42688e-05
16 *245:19 *24060:B 0
17 *246:8 *24061:B 7.59794e-05
18 *246:8 *247:8 5.50106e-05
*RES
1 *24059:Y *247:8 38.6214 
2 *247:8 *247:10 1.20143 
3 *247:10 *24060:B 41.7079 
4 *247:10 *24061:B 39.5743 
5 *247:8 *24068:B2 39.9057 
*END

*D_NET *248 0.00195461
*CONN
*I *24062:A1 I *D sky130_fd_sc_hd__a21o_1
*I *24060:Y O *D sky130_fd_sc_hd__nand2_1
*CAP
1 *24062:A1 0.000306418
2 *24060:Y 0.000319043
3 *248:8 0.000625461
4 *24062:A1 *24062:A2 0.000227407
5 *248:8 *249:8 0
6 *248:8 *328:45 0
7 *248:8 *475:50 9.21347e-06
8 *24060:B *248:8 4.23714e-05
9 *24068:B1 *248:8 0.000228981
10 *24068:B2 *248:8 4.23714e-05
11 *55:10 *248:8 3.83778e-05
12 *245:19 *248:8 8.85189e-05
13 *247:10 *248:8 2.64506e-05
*RES
1 *24060:Y *248:8 44.8357 
2 *248:8 *24062:A1 42.9093 
*END

*D_NET *249 0.00156801
*CONN
*I *24062:A2 I *D sky130_fd_sc_hd__a21o_1
*I *24061:X O *D sky130_fd_sc_hd__or2_1
*CAP
1 *24062:A2 0.000281464
2 *24061:X 0.00020385
3 *249:8 0.000485314
4 *249:8 *475:50 0.000138718
5 *24062:A1 *24062:A2 0.000227407
6 *24068:A3 *249:8 0.000163352
7 *55:10 *249:8 6.79006e-05
8 *248:8 *249:8 0
*RES
1 *24061:X *249:8 42.7229 
2 *249:8 *24062:A2 44.3386 
*END

*D_NET *250 0.00059427
*CONN
*I *24063:C1 I *D sky130_fd_sc_hd__o211a_1
*I *24062:X O *D sky130_fd_sc_hd__a21o_1
*CAP
1 *24063:C1 0
2 *24062:X 0.000224738
3 *250:10 0.000224738
4 *250:10 *328:45 0
5 *250:10 *353:154 6.07611e-06
6 *250:10 *356:133 0.000138718
*RES
1 *24062:X *250:10 41.48 
2 *250:10 *24063:C1 38 
*END

*D_NET *251 0.00260602
*CONN
*I *24065:A I *D sky130_fd_sc_hd__inv_2
*I *24072:A1 I *D sky130_fd_sc_hd__a21o_1
*I *24064:X O *D sky130_fd_sc_hd__a31o_1
*CAP
1 *24065:A 0
2 *24072:A1 0
3 *24064:X 0
4 *251:25 0.000541835
5 *251:12 9.56414e-05
6 *251:4 0.000637477
7 *251:12 *24072:A2 6.16439e-05
8 *251:12 *253:14 0.000139352
9 *251:12 *254:10 9.5877e-05
10 *251:12 *347:48 0
11 *251:25 *24064:B1 0.000125948
12 *251:25 *24071:A1 0.000262829
13 *251:25 *253:14 0.000463495
14 *251:25 *257:10 0.000181925
*RES
1 *24064:X *251:4 23 
2 *251:4 *251:12 32.4236 
3 *251:12 *24072:A1 23 
4 *251:4 *251:25 41.4136 
5 *251:25 *24065:A 23 
*END

*D_NET *252 0.00333707
*CONN
*I *24067:A I *D sky130_fd_sc_hd__nor2_1
*I *24065:Y O *D sky130_fd_sc_hd__inv_2
*CAP
1 *24067:A 0
2 *24065:Y 0.000307796
3 *252:16 0.000311045
4 *252:8 0.000618841
5 *252:8 *24071:A1 0.000185428
6 *252:8 *256:10 0.000180218
7 *252:16 *24067:B 0.000187129
8 *252:16 *24072:A2 1.84226e-05
9 *252:16 *253:14 8.99287e-05
10 *252:16 *254:10 0.000163168
11 *252:16 *258:10 4.5051e-05
12 *24058:B1 *252:16 2.3853e-05
13 *24064:A3 *252:16 0.000112665
14 *24071:A2 *252:8 0.000119486
15 *56:10 *252:8 1.95556e-05
16 *105:42 *252:16 0.00042646
17 *236:14 *252:16 0.000528019
*RES
1 *24065:Y *252:8 44.3386 
2 *252:8 *252:16 27.1386 
3 *252:16 *24067:A 23 
*END

*D_NET *253 0.00220923
*CONN
*I *24072:B1 I *D sky130_fd_sc_hd__a21o_1
*I *24067:B I *D sky130_fd_sc_hd__nor2_1
*I *24066:X O *D sky130_fd_sc_hd__and3_1
*CAP
1 *24072:B1 0
2 *24067:B 2.58832e-05
3 *24066:X 9.36009e-05
4 *253:14 0.000250311
5 *253:8 0.000318029
6 *24067:B *254:10 2.9938e-05
7 *24067:B *258:10 0.00010018
8 *253:8 *24064:B1 0.000138727
9 *253:8 *256:10 0
10 *253:14 *24064:B1 0.000148698
11 *253:14 *254:10 4.79544e-05
12 *24064:A3 *253:14 0.000137651
13 *236:14 *253:14 3.83498e-05
14 *251:12 *253:14 0.000139352
15 *251:25 *253:14 0.000463495
16 *252:16 *24067:B 0.000187129
17 *252:16 *253:14 8.99287e-05
*RES
1 *24066:X *253:8 39.9057 
2 *253:8 *253:14 23.265 
3 *253:14 *24067:B 25.0507 
4 *253:14 *24072:B1 23 
*END

*D_NET *254 0.00153772
*CONN
*I *24069:A I *D sky130_fd_sc_hd__xnor2_1
*I *24067:Y O *D sky130_fd_sc_hd__nor2_1
*CAP
1 *24069:A 0
2 *24067:Y 0.000385866
3 *254:10 0.000385866
4 *254:10 *24069:B 0.000222123
5 *254:10 *24072:A2 0.000139647
6 *254:10 *258:10 5.70419e-05
7 *24067:B *254:10 2.9938e-05
8 *105:42 *254:10 1.02387e-05
9 *251:12 *254:10 9.5877e-05
10 *252:16 *254:10 0.000163168
11 *253:14 *254:10 4.79544e-05
*RES
1 *24067:Y *254:10 46.6793 
2 *254:10 *24069:A 38 
*END

*D_NET *255 0.00194736
*CONN
*I *24069:B I *D sky130_fd_sc_hd__xnor2_1
*I *24072:A2 I *D sky130_fd_sc_hd__a21o_1
*I *24068:X O *D sky130_fd_sc_hd__a32o_1
*CAP
1 *24069:B 0.000132788
2 *24072:A2 0.00012722
3 *24068:X 0.000228818
4 *255:8 0.000488826
5 *24072:A2 *347:48 0
6 *255:8 *328:28 0.000317346
7 *255:8 *347:48 0.000145775
8 *24064:A3 *24072:A2 1.14452e-05
9 *24068:A3 *255:8 5.3304e-05
10 *105:42 *24069:B 0
11 *251:12 *24072:A2 6.16439e-05
12 *252:16 *24072:A2 1.84226e-05
13 *254:10 *24069:B 0.000222123
14 *254:10 *24072:A2 0.000139647
*RES
1 *24068:X *255:8 44.815 
2 *255:8 *24072:A2 40.9621 
3 *255:8 *24069:B 41.3143 
*END

*D_NET *256 0.00121158
*CONN
*I *24070:B I *D sky130_fd_sc_hd__nand2_1
*I *24069:Y O *D sky130_fd_sc_hd__xnor2_1
*CAP
1 *24070:B 0
2 *24069:Y 0.000402543
3 *256:10 0.000402543
4 *256:10 *24064:B1 0
5 *256:10 *24070:A 6.07611e-06
6 *256:10 *24071:A1 0
7 *256:10 *257:10 6.02277e-06
8 *256:10 *354:231 8.4047e-05
9 *24066:C *256:10 0.000130127
10 *252:8 *256:10 0.000180218
11 *253:8 *256:10 0
*RES
1 *24069:Y *256:10 45.1257 
2 *256:10 *24070:B 38 
*END

*D_NET *257 0.00128496
*CONN
*I *24071:C1 I *D sky130_fd_sc_hd__o211a_1
*I *24070:Y O *D sky130_fd_sc_hd__nand2_1
*CAP
1 *24071:C1 0
2 *24070:Y 0.000288945
3 *257:10 0.000288945
4 *257:10 *328:10 0.000169674
5 *257:10 *354:231 6.58373e-05
6 *24066:C *257:10 0.000194318
7 *105:42 *257:10 8.92944e-05
8 *251:25 *257:10 0.000181925
9 *256:10 *257:10 6.02277e-06
*RES
1 *24070:Y *257:10 44.7736 
2 *257:10 *24071:C1 38 
*END

*D_NET *258 0.00562148
*CONN
*I *24073:A2 I *D sky130_fd_sc_hd__a21o_1
*I *24074:C I *D sky130_fd_sc_hd__nand3_1
*I *24076:A4 I *D sky130_fd_sc_hd__a41o_1
*I *24072:X O *D sky130_fd_sc_hd__a21o_1
*CAP
1 *24073:A2 2.1727e-05
2 *24074:C 0
3 *24076:A4 9.32116e-05
4 *24072:X 0.000953561
5 *258:22 0.000581637
6 *258:10 0.00146371
7 *24073:A2 *24056:C1 0
8 *24073:A2 *24073:B1 4.00259e-06
9 *24076:A4 *260:12 9.49561e-05
10 *24076:A4 *360:113 0.000266265
11 *258:10 *353:111 0.000132057
12 *258:10 *353:115 0.000156058
13 *258:10 *353:154 2.32101e-05
14 *258:10 *356:133 0.000359332
15 *258:10 *475:50 4.57742e-05
16 *258:22 *24073:B1 9.88674e-05
17 *258:22 *260:12 1.40958e-05
18 *258:22 *309:103 0.000131169
19 *258:22 *340:14 0.000108672
20 *258:22 *353:115 4.96717e-05
21 *258:22 *360:113 5.50049e-05
22 *24058:B1 *258:10 1.57571e-05
23 *24061:A *258:10 3.9622e-05
24 *24061:B *258:10 0.000140259
25 *24067:B *258:10 0.00010018
26 *24284:A *258:22 0.000235687
27 *246:8 *258:10 0.000334895
28 *252:16 *258:10 4.5051e-05
29 *254:10 *258:10 5.70419e-05
*RES
1 *24072:X *258:10 44.6257 
2 *258:10 *258:22 40.7714 
3 *258:22 *24076:A4 26.0036 
4 *258:22 *24074:C 23 
5 *258:10 *24073:A2 23.4971 
*END

*D_NET *259 0.00303406
*CONN
*I *24075:B I *D sky130_fd_sc_hd__and3_1
*I *24073:X O *D sky130_fd_sc_hd__a21o_1
*CAP
1 *24075:B 0
2 *24073:X 0.000312991
3 *259:16 0.000295346
4 *259:10 0.000608337
5 *259:10 *24073:B1 5.70007e-05
6 *259:10 *260:25 0
7 *259:10 *340:14 0
8 *259:10 *353:134 0.000293785
9 *259:16 *341:6 0.000332109
10 *259:16 *353:134 0.000161459
11 *57:6 *259:16 0.000973032
*RES
1 *24073:X *259:10 44.1729 
2 *259:10 *259:16 27.4286 
3 *259:16 *24075:B 23 
*END

*D_NET *260 0.00240333
*CONN
*I *24308:A I *D sky130_fd_sc_hd__dlygate4sd3_1
*I *24077:A2 I *D sky130_fd_sc_hd__a21oi_1
*I *24074:Y O *D sky130_fd_sc_hd__nand3_1
*CAP
1 *24308:A 0
2 *24077:A2 0
3 *24074:Y 0
4 *260:25 0.000352512
5 *260:12 0.000528157
6 *260:4 0.000880669
7 *260:12 *24074:B 5.56279e-05
8 *260:12 *24076:A1 0.00018152
9 *260:12 *24076:A2 2.03764e-06
10 *260:12 *360:113 1.22831e-05
11 *260:12 *478:10 1.14452e-05
12 *260:25 *24074:B 0.000185925
13 *260:25 *309:103 0
14 *260:25 *340:14 0
15 *24076:A4 *260:12 9.49561e-05
16 *24076:B1 *260:12 8.41012e-05
17 *258:22 *260:12 1.40958e-05
18 *259:10 *260:25 0
*RES
1 *24074:Y *260:4 23 
2 *260:4 *260:12 38.12 
3 *260:12 *24077:A2 23 
4 *260:4 *260:25 35.7171 
5 *260:25 *24308:A 23 
*END

*D_NET *261 0.000530423
*CONN
*I *24077:B1 I *D sky130_fd_sc_hd__a21oi_1
*I *24076:X O *D sky130_fd_sc_hd__a41o_1
*CAP
1 *24077:B1 4.55466e-05
2 *24076:X 4.70145e-05
3 *261:8 9.25611e-05
4 *261:8 *362:202 0.000169683
5 *58:10 *24077:B1 3.7122e-06
6 *97:17 *261:8 0.000171906
*RES
1 *24076:X *261:8 40.2579 
2 *261:8 *24077:B1 38.6214 
*END

*D_NET *262 0.00211492
*CONN
*I *24083:C I *D sky130_fd_sc_hd__and3b_1
*I *24079:B1 I *D sky130_fd_sc_hd__a21oi_1
*I *24078:X O *D sky130_fd_sc_hd__a21o_1
*CAP
1 *24083:C 0.000207112
2 *24079:B1 0.000181983
3 *24078:X 0.00020724
4 *262:8 0.000596335
5 *24079:B1 *305:10 0
6 *24079:B1 *435:8 0
7 *24083:C *24085:A1 0.000329214
8 *24083:C *24085:A2 7.80251e-05
9 *24083:C *330:21 0
10 *262:8 *23875:A 7.53384e-06
11 *262:8 *24297:A 0.000272383
12 *262:8 *330:6 2.4754e-05
13 *90:22 *24079:B1 0
14 *90:45 *24079:B1 5.36457e-05
15 *90:45 *24083:C 4.16868e-05
16 *200:12 *24083:C 0.000115013
*RES
1 *24078:X *262:8 42.9093 
2 *262:8 *24079:B1 41.3143 
3 *262:8 *24083:C 44.1314 
*END

*D_NET *263 0.00469073
*CONN
*I *24080:B1 I *D sky130_fd_sc_hd__a21oi_2
*I *24082:B1 I *D sky130_fd_sc_hd__a311oi_1
*I *24079:Y O *D sky130_fd_sc_hd__a21oi_1
*CAP
1 *24080:B1 0
2 *24082:B1 0
3 *24079:Y 0.000550326
4 *263:27 0.000480835
5 *263:14 0.000876094
6 *263:12 0.000945585
7 *263:12 *24079:A1 8.08139e-06
8 *263:12 *24182:CLK 5.47808e-05
9 *263:12 *307:34 6.12496e-06
10 *263:12 *369:10 0
11 *263:14 *307:34 0
12 *263:14 *315:48 0.000140949
13 *263:14 *369:10 0
14 *263:27 *24205:A 9.84851e-05
15 *263:27 *24206:A 0.000215791
16 *263:27 *369:10 0
17 *59:8 *263:27 0.000141879
18 *90:14 *263:12 0.000100733
19 *98:8 *263:27 5.3304e-05
20 *98:14 *263:14 8.85189e-05
21 *98:14 *263:27 0.000882267
22 *98:20 *263:14 4.69776e-05
*RES
1 *24079:Y *263:12 45.7575 
2 *263:12 *263:14 6.65964 
3 *263:14 *24082:B1 38 
4 *263:14 *263:27 28.6921 
5 *263:27 *24080:B1 23 
*END

*D_NET *264 0.00743341
*CONN
*I *24086:B I *D sky130_fd_sc_hd__and2_1
*I *24084:A1 I *D sky130_fd_sc_hd__o21ai_1
*I *24082:A2 I *D sky130_fd_sc_hd__a311oi_1
*I *24085:A1 I *D sky130_fd_sc_hd__a21oi_1
*I *24080:Y O *D sky130_fd_sc_hd__a21oi_2
*CAP
1 *24086:B 0.000373544
2 *24084:A1 0.000284332
3 *24082:A2 0.000243221
4 *24085:A1 0.000202363
5 *24080:Y 0.000330504
6 *264:12 0.000502721
7 *264:10 0.00072949
8 *264:8 0.00109207
9 *24082:A2 *24082:A3 5.50106e-05
10 *24082:A2 *368:44 0.000372393
11 *24084:A1 *24084:A2 0.000446768
12 *24084:A1 *307:32 1.5769e-05
13 *24085:A1 *24085:A2 6.17437e-06
14 *24086:B *23895:A_N 0.000270671
15 *24086:B *23895:B 4.2417e-05
16 *24086:B *312:12 5.65559e-05
17 *24086:B *312:28 0.000138607
18 *24086:B *423:25 4.37697e-05
19 *264:8 *423:16 5.3304e-05
20 *264:10 *368:62 0
21 *264:10 *423:16 0.000117244
22 *264:10 *423:25 4.6318e-06
23 *264:10 *436:10 0.000352538
24 *24080:A1 *264:8 0.000123934
25 *24080:A2 *264:8 3.47781e-05
26 *24083:C *24085:A1 0.000329214
27 *90:45 *24085:A1 0.000175449
28 *90:45 *264:12 4.6318e-06
29 *90:112 *264:10 2.71291e-05
30 *90:112 *264:12 4.85126e-05
31 *100:10 *24086:B 0.000141052
32 *200:12 *24085:A1 1.12487e-05
33 *200:12 *264:10 0.000298283
34 *200:12 *264:12 5.09885e-05
35 *200:22 *24082:A2 0.000400198
36 *200:44 *24086:B 4.16139e-05
37 *200:44 *264:10 1.22803e-05
*RES
1 *24080:Y *264:8 42.4329 
2 *264:8 *264:10 10.005 
3 *264:10 *264:12 1.55357 
4 *264:12 *24085:A1 43.3443 
5 *264:12 *24082:A2 44.9807 
6 *264:10 *24084:A1 43.8829 
7 *264:8 *24086:B 46.5343 
*END

*D_NET *265 0.000517589
*CONN
*I *24298:A I *D sky130_fd_sc_hd__dlygate4sd3_1
*I *24081:X O *D sky130_fd_sc_hd__or3b_1
*CAP
1 *24298:A 0
2 *24081:X 0.000207882
3 *265:10 0.000207882
4 *265:10 *24085:A2 3.47879e-05
5 *265:10 *307:34 0
6 *200:22 *265:10 6.70363e-05
*RES
1 *24081:X *265:10 41.48 
2 *265:10 *24298:A 38 
*END

*D_NET *266 0.0024857
*CONN
*I *24084:A2 I *D sky130_fd_sc_hd__o21ai_1
*I *24085:A2 I *D sky130_fd_sc_hd__a21oi_1
*I *24083:X O *D sky130_fd_sc_hd__and3b_1
*CAP
1 *24084:A2 0.000242327
2 *24085:A2 0.000239277
3 *24083:X 0
4 *266:6 0.000481603
5 *24084:A2 *307:32 4.6595e-05
6 *24084:A2 *307:34 0
7 *24085:A2 *307:34 0
8 *24085:A2 *330:21 0
9 *24083:C *24085:A2 7.80251e-05
10 *24084:A1 *24084:A2 0.000446768
11 *24084:B1 *24084:A2 0.000264735
12 *24085:A1 *24085:A2 6.17437e-06
13 *90:118 *24084:A2 0.000221997
14 *200:12 *24084:A2 0.000141879
15 *200:12 *24085:A2 0.000141888
16 *200:22 *24085:A2 0.000139647
17 *265:10 *24085:A2 3.47879e-05
*RES
1 *24083:X *266:6 38 
2 *266:6 *24085:A2 43.5929 
3 *266:6 *24084:A2 46.2443 
*END

*D_NET *267 0.000958763
*CONN
*I *24085:B1 I *D sky130_fd_sc_hd__a21oi_1
*I *24084:Y O *D sky130_fd_sc_hd__o21ai_1
*CAP
1 *24085:B1 0.000107377
2 *24084:Y 0.000239945
3 *267:8 0.000347322
4 *267:8 *368:30 0.000134677
5 *267:8 *368:62 4.74809e-05
6 *60:10 *24085:B1 8.19612e-05
*RES
1 *24084:Y *267:8 43.075 
2 *267:8 *24085:B1 40.5271 
*END

*D_NET *268 0.00103853
*CONN
*I *24088:B1 I *D sky130_fd_sc_hd__o211a_1
*I *24087:X O *D sky130_fd_sc_hd__or3b_1
*CAP
1 *24088:B1 0
2 *24087:X 0.000253635
3 *268:10 0.000253635
4 *268:10 *23898:A 0.000182832
5 *268:10 *362:130 1.79175e-05
6 *90:118 *268:10 0.000160182
7 *90:133 *268:10 1.01436e-05
8 *99:31 *268:10 0.000160191
*RES
1 *24087:X *268:10 42.785 
2 *268:10 *24088:B1 38 
*END

*D_NET *269 0.000134114
*CONN
*I *24276:A I *D sky130_fd_sc_hd__dlygate4sd3_1
*I *24089:Y O *D sky130_fd_sc_hd__o21ai_1
*CAP
1 *24276:A 5.09546e-05
2 *24089:Y 5.09546e-05
3 *24276:A *24089:B1 3.22051e-05
*RES
1 *24089:Y *24276:A 47.1186 
*END

*D_NET *270 0.000893623
*CONN
*I *24091:A2 I *D sky130_fd_sc_hd__a21oi_1
*I *24090:X O *D sky130_fd_sc_hd__or3_1
*CAP
1 *24091:A2 0
2 *24090:X 0.000172251
3 *270:8 0.000172251
4 *24090:C *270:8 0
5 *24277:A *270:8 5.50106e-05
6 *103:27 *270:8 0.000176557
7 *192:12 *270:8 0.000317553
*RES
1 *24090:X *270:8 29.235 
2 *270:8 *24091:A2 23 
*END

*D_NET *271 0.000896579
*CONN
*I *24094:B I *D sky130_fd_sc_hd__nor2_1
*I *24093:Y O *D sky130_fd_sc_hd__o21ai_1
*CAP
1 *24094:B 0
2 *24093:Y 0.000372238
3 *271:10 0.000372238
4 *271:10 *24181:CLK 0
5 *271:10 *307:144 0
6 *271:10 *307:170 0
7 *104:50 *271:10 1.01436e-05
8 *106:12 *271:10 0
9 *201:14 *271:10 0.00014196
*RES
1 *24093:Y *271:10 44.6493 
2 *271:10 *24094:B 38 
*END

*D_NET *272 0.000591656
*CONN
*I *24096:C I *D sky130_fd_sc_hd__and3_1
*I *24095:X O *D sky130_fd_sc_hd__mux2_1
*CAP
1 *24096:C 5.65784e-05
2 *24095:X 0.00012802
3 *272:10 0.000184598
4 *24096:C *400:135 6.04112e-05
5 *272:10 *406:31 3.71369e-05
6 *272:10 *406:50 4.08641e-05
7 *24096:B *272:10 8.4047e-05
*RES
1 *24095:X *272:10 40.2993 
2 *272:10 *24096:C 38.7043 
*END

*D_NET *273 0.00258082
*CONN
*I *24242:A I *D sky130_fd_sc_hd__dlygate4sd3_1
*I *24100:X O *D sky130_fd_sc_hd__a31o_1
*CAP
1 *24242:A 0.000198781
2 *24100:X 0.00034318
3 *273:8 0.000541962
4 *24242:A *23977:A 0.000342394
5 *24242:A *365:46 5.76076e-05
6 *24242:A *393:16 0.000222113
7 *273:8 *393:16 0.000485227
8 *179:16 *24242:A 0.000324742
9 *179:23 *24242:A 6.48142e-05
*RES
1 *24100:X *273:8 43.3857 
2 *273:8 *24242:A 45.54 
*END

*D_NET *274 0.00045565
*CONN
*I *24103:A2 I *D sky130_fd_sc_hd__a21o_1
*I *24102:Y O *D sky130_fd_sc_hd__nand2_1
*CAP
1 *24103:A2 4.5013e-05
2 *24102:Y 7.88966e-05
3 *274:8 0.00012391
4 *24103:A2 *355:239 0.000107785
5 *274:8 *363:34 0
6 *24103:A1 *24103:A2 5.67058e-05
7 *24103:A1 *274:8 4.334e-05
8 *179:36 *274:8 0
*RES
1 *24102:Y *274:8 39.5536 
2 *274:8 *24103:A2 39.595 
*END

*D_NET *275 9.87992e-05
*CONN
*I *24104:C1 I *D sky130_fd_sc_hd__o211a_1
*I *24103:X O *D sky130_fd_sc_hd__a21o_1
*CAP
1 *24104:C1 2.10467e-05
2 *24103:X 2.10467e-05
3 *24104:C1 *353:80 5.67058e-05
*RES
1 *24103:X *24104:C1 46.6214 
*END

*D_NET *276 0.00121888
*CONN
*I *24106:B I *D sky130_fd_sc_hd__nand2_1
*I *24105:Y O *D sky130_fd_sc_hd__xnor2_1
*CAP
1 *24106:B 0
2 *24105:Y 0.000355165
3 *276:10 0.000355165
4 *276:10 *361:23 6.68793e-05
5 *276:10 *367:81 0.000399291
6 *105:42 *276:10 4.23817e-05
*RES
1 *24105:Y *276:10 44.3386 
2 *276:10 *24106:B 38 
*END

*D_NET *277 0.00084659
*CONN
*I *24107:C1 I *D sky130_fd_sc_hd__o211a_1
*I *24106:Y O *D sky130_fd_sc_hd__nand2_1
*CAP
1 *24107:C1 0
2 *24106:Y 0.000224079
3 *277:12 0.000224079
4 *277:12 *354:101 0.00012986
5 *277:12 *360:159 0.00016839
6 *277:12 *361:32 0
7 *72:10 *277:12 0.00010018
*RES
1 *24106:Y *277:12 28.9243 
2 *277:12 *24107:C1 23 
*END

*D_NET *278 0.000876627
*CONN
*I *24110:A2 I *D sky130_fd_sc_hd__o211a_1
*I *24108:Y O *D sky130_fd_sc_hd__xnor2_1
*CAP
1 *24110:A2 0
2 *24108:Y 0.000225901
3 *278:10 0.000225901
4 *23965:C *278:10 0.000166513
5 *23980:A1 *278:10 0.000166513
6 *23980:A2 *278:10 9.17998e-05
*RES
1 *24108:Y *278:10 42.3086 
2 *278:10 *24110:A2 38 
*END

*D_NET *279 0.00112823
*CONN
*I *24110:B1 I *D sky130_fd_sc_hd__o211a_1
*I *24109:X O *D sky130_fd_sc_hd__or2_1
*CAP
1 *24110:B1 1.91252e-05
2 *24109:X 0.000291067
3 *279:10 0.000310192
4 *24110:B1 *24110:A1 5.3304e-05
5 *24110:B1 *24110:C1 5.50106e-05
6 *279:10 *24110:A1 0.000114074
7 *279:10 *356:72 8.73233e-05
8 *23965:C *279:10 0.000166522
9 *23966:A2 *279:10 2.35393e-05
10 *182:8 *279:10 8.06804e-06
*RES
1 *24109:X *279:10 42.785 
2 *279:10 *24110:B1 38.6214 
*END

*D_NET *280 0.000586597
*CONN
*I *24113:A2 I *D sky130_fd_sc_hd__o211a_1
*I *24111:X O *D sky130_fd_sc_hd__xor2_1
*CAP
1 *24113:A2 0
2 *24111:X 0.000225912
3 *280:12 0.000225912
4 *280:12 *24188:CLK 4.93944e-05
5 *280:12 *344:26 0
6 *280:12 *354:170 5.3304e-05
7 *187:20 *280:12 3.20742e-05
*RES
1 *24111:X *280:12 27.495 
2 *280:12 *24113:A2 23 
*END

*D_NET *281 0.000854373
*CONN
*I *24113:B1 I *D sky130_fd_sc_hd__o211a_1
*I *24112:X O *D sky130_fd_sc_hd__or2_1
*CAP
1 *24113:B1 0
2 *24112:X 0.000166077
3 *281:8 0.000166077
4 *281:8 *24113:A1 0.000122407
5 *281:8 *310:143 3.62219e-05
6 *281:8 *354:170 0.000299196
7 *281:8 *356:33 6.4393e-05
*RES
1 *24112:X *281:8 43.075 
2 *281:8 *24113:B1 38 
*END

*D_NET *282 0.000813207
*CONN
*I *24116:A2 I *D sky130_fd_sc_hd__o211a_1
*I *24114:Y O *D sky130_fd_sc_hd__xnor2_1
*CAP
1 *24116:A2 0
2 *24114:Y 0.00019917
3 *282:10 0.00019917
4 *282:10 *283:8 8.16356e-05
5 *282:10 *355:279 0.000308476
6 *24114:B *282:10 2.4754e-05
*RES
1 *24114:Y *282:10 42.3086 
2 *282:10 *24116:A2 38 
*END

*D_NET *283 0.000527503
*CONN
*I *24116:B1 I *D sky130_fd_sc_hd__o211a_1
*I *24115:X O *D sky130_fd_sc_hd__or2_1
*CAP
1 *24116:B1 1.50079e-05
2 *24115:X 6.96646e-05
3 *283:8 8.46725e-05
4 *24116:B1 *310:177 5.50049e-05
5 *24116:B1 *320:10 5.50049e-05
6 *283:8 *354:185 1.14452e-05
7 *283:8 *354:207 0.000155068
8 *282:10 *283:8 8.16356e-05
*RES
1 *24115:X *283:8 40.2579 
2 *283:8 *24116:B1 38.6214 
*END

*D_NET *284 0.00090607
*CONN
*I *24119:A2 I *D sky130_fd_sc_hd__o211a_1
*I *24117:X O *D sky130_fd_sc_hd__xor2_1
*CAP
1 *24119:A2 0
2 *24117:X 0.000171874
3 *284:10 0.000171874
4 *284:10 *285:10 0.00014411
5 *284:10 *319:14 3.70187e-05
6 *284:10 *356:87 0.000218952
7 *284:10 *361:108 0.000141954
8 *153:8 *284:10 2.02872e-05
*RES
1 *24117:X *284:10 43.0129 
2 *284:10 *24119:A2 38 
*END

*D_NET *285 0.000525473
*CONN
*I *24119:B1 I *D sky130_fd_sc_hd__o211a_1
*I *24118:X O *D sky130_fd_sc_hd__or2_1
*CAP
1 *24119:B1 0
2 *24118:X 0.000140591
3 *285:10 0.000140591
4 *153:8 *285:10 0.00010018
5 *284:10 *285:10 0.00014411
*RES
1 *24118:X *285:10 41.0036 
2 *285:10 *24119:B1 38 
*END

*D_NET *286 0.000468702
*CONN
*I *24269:A I *D sky130_fd_sc_hd__dlygate4sd3_1
*I *24120:X O *D sky130_fd_sc_hd__a21o_1
*CAP
1 *24269:A 0.000209515
2 *24120:X 0.000209515
3 *24269:A *24120:A1 4.96717e-05
*RES
1 *24120:X *24269:A 49.0036 
*END

*D_NET *287 0.000554738
*CONN
*I *24264:A I *D sky130_fd_sc_hd__dlygate4sd3_1
*I *24122:X O *D sky130_fd_sc_hd__a31o_1
*CAP
1 *24264:A 2.16649e-05
2 *24122:X 8.51565e-05
3 *287:8 0.000106821
4 *287:8 *308:162 0
5 *287:8 *365:46 0.000140958
6 *107:44 *24264:A 0.000100069
7 *162:18 *24264:A 0.000100069
*RES
1 *24122:X *287:8 39.9057 
2 *287:8 *24264:A 39.0979 
*END

*D_NET *288 0.0012109
*CONN
*I *24124:C I *D sky130_fd_sc_hd__and3_1
*I *24123:Y O *D sky130_fd_sc_hd__nand2_1
*CAP
1 *24124:C 0.000131394
2 *24123:Y 0.000125554
3 *288:8 0.000256947
4 *24124:C *24199:CLK 0.000166386
5 *288:8 *406:77 0
6 *78:10 *24124:C 0.00010018
7 *78:10 *288:8 0.000100293
8 *143:10 *288:8 0.000330144
*RES
1 *24123:Y *288:8 42.3707 
2 *288:8 *24124:C 41.3143 
*END

*D_NET *289 0.000849277
*CONN
*I *24126:B I *D sky130_fd_sc_hd__nand2_1
*I *24125:Y O *D sky130_fd_sc_hd__xnor2_1
*CAP
1 *24126:B 0
2 *24125:Y 0.000349184
3 *289:10 0.000349184
4 *289:10 *379:12 0.000103647
5 *289:10 *379:25 7.53384e-06
6 *23941:A2 *289:10 1.03955e-05
7 *24125:A *289:10 2.93335e-05
8 *107:110 *289:10 0
*RES
1 *24125:Y *289:10 42.9093 
2 *289:10 *24126:B 38 
*END

*D_NET *290 0.000883494
*CONN
*I *24127:C1 I *D sky130_fd_sc_hd__o211a_1
*I *24126:Y O *D sky130_fd_sc_hd__nand2_1
*CAP
1 *24127:C1 0
2 *24126:Y 0.00016137
3 *290:8 0.00016137
4 *290:8 *525:DIODE 9.7129e-05
5 *290:8 *24126:A 0.000267173
6 *290:8 *359:53 0.000143869
7 *79:8 *290:8 5.25848e-05
*RES
1 *24126:Y *290:8 27.93 
2 *290:8 *24127:C1 23 
*END

*D_NET *291 0.000410625
*CONN
*I *24129:A2 I *D sky130_fd_sc_hd__a21o_1
*I *24128:Y O *D sky130_fd_sc_hd__o21ai_1
*CAP
1 *24129:A2 6.07724e-05
2 *24128:Y 6.07724e-05
3 *144:16 *24129:A2 0.000185434
4 *145:17 *24129:A2 0.000103647
*RES
1 *24128:Y *24129:A2 48.5479 
*END

*D_NET *292 0.000395632
*CONN
*I *24130:C1 I *D sky130_fd_sc_hd__o211a_1
*I *24129:X O *D sky130_fd_sc_hd__a21o_1
*CAP
1 *24130:C1 1.49804e-05
2 *24129:X 9.31473e-05
3 *292:8 0.000108128
4 *24130:C1 *357:116 5.50106e-05
5 *292:8 *343:25 6.93553e-05
6 *292:8 *367:62 0
7 *145:8 *292:8 0
8 *201:14 *24130:C1 5.50106e-05
*RES
1 *24129:X *292:8 39.9057 
2 *292:8 *24130:C1 38.6214 
*END

*D_NET *293 0.000619115
*CONN
*I *24132:A2 I *D sky130_fd_sc_hd__a21o_1
*I *24131:Y O *D sky130_fd_sc_hd__o21ai_1
*CAP
1 *24132:A2 7.62531e-05
2 *24131:Y 5.03899e-05
3 *293:8 0.000126643
4 *24131:A2 *293:8 0.000169683
5 *24132:A1 *24132:A2 2.64616e-05
6 *145:23 *293:8 0.000169683
*RES
1 *24131:Y *293:8 40.2579 
2 *293:8 *24132:A2 39.0979 
*END

*D_NET *294 0.00123051
*CONN
*I *24133:C1 I *D sky130_fd_sc_hd__o211a_1
*I *24132:X O *D sky130_fd_sc_hd__a21o_1
*CAP
1 *24133:C1 0.000228602
2 *24132:X 0.000137239
3 *294:8 0.000365841
4 *24133:C1 *24137:A2 5.3304e-05
5 *24133:C1 *390:36 6.32658e-05
6 *294:8 *24137:A1 0.000297959
7 *294:8 *355:148 1.14452e-05
8 *294:8 *390:36 0
9 *145:23 *294:8 7.28526e-05
*RES
1 *24132:X *294:8 42.0186 
2 *294:8 *24133:C1 41.3764 
*END

*D_NET *295 0.000241427
*CONN
*I *24135:A2 I *D sky130_fd_sc_hd__o21a_1
*I *24134:Y O *D sky130_fd_sc_hd__nand2_1
*CAP
1 *24135:A2 0
2 *24134:Y 3.21944e-05
3 *295:8 3.21944e-05
4 *24134:B *295:8 8.85189e-05
5 *111:14 *295:8 8.85189e-05
*RES
1 *24134:Y *295:8 39.2014 
2 *295:8 *24135:A2 38 
*END

*D_NET *296 0.00188791
*CONN
*I *24137:A2 I *D sky130_fd_sc_hd__o211a_1
*I *24135:X O *D sky130_fd_sc_hd__o21a_1
*CAP
1 *24137:A2 0.000452982
2 *24135:X 0.000115428
3 *296:8 0.00056841
4 *24137:A2 *390:36 0.000150242
5 *24133:C1 *24137:A2 5.3304e-05
6 *24134:A *296:8 0.000169674
7 *123:10 *296:8 0.000326983
8 *147:21 *296:8 5.08899e-05
*RES
1 *24135:X *296:8 42.3707 
2 *296:8 *24137:A2 45.7886 
*END

*D_NET *297 0.00303354
*CONN
*I *24137:B1 I *D sky130_fd_sc_hd__o211a_1
*I *24136:Y O *D sky130_fd_sc_hd__nand2_1
*CAP
1 *24137:B1 0
2 *24136:Y 9.84647e-05
3 *297:26 0.0012911
4 *297:12 0.00138956
5 *297:12 *355:118 1.27321e-05
6 *297:26 *24137:A1 0.000235601
7 *201:27 *297:26 0
8 *201:51 *297:26 6.07611e-06
*RES
1 *24136:Y *297:12 46.5059 
2 *297:12 *297:26 45.0857 
3 *297:26 *24137:B1 23 
*END

*D_NET *298 0.00134191
*CONN
*I *24139:B I *D sky130_fd_sc_hd__nor2_1
*I *24138:X O *D sky130_fd_sc_hd__and2_1
*CAP
1 *24139:B 0
2 *24138:X 0.000442032
3 *298:10 0.000442032
4 *298:10 *318:36 6.79006e-05
5 *298:10 *414:10 8.41115e-05
6 *23909:B *298:10 6.7177e-06
7 *23946:A1 *298:10 0
8 *40:14 *298:10 0
9 *112:14 *298:10 0
10 *112:27 *298:10 7.03766e-05
11 *114:10 *298:10 0.000143655
12 *148:16 *298:10 7.73198e-05
13 *148:29 *298:10 7.76364e-06
*RES
1 *24138:X *298:10 47.4664 
2 *298:10 *24139:B 38 
*END

*D_NET *299 0.00052804
*CONN
*I *24141:A2 I *D sky130_fd_sc_hd__o211a_1
*I *24139:Y O *D sky130_fd_sc_hd__nor2_1
*CAP
1 *24141:A2 0
2 *24139:Y 0.000248572
3 *299:8 0.000248572
4 *299:8 *356:72 3.08966e-05
*RES
1 *24139:Y *299:8 27.4536 
2 *299:8 *24141:A2 23 
*END

*D_NET *300 0.000945385
*CONN
*I *24141:B1 I *D sky130_fd_sc_hd__o211a_1
*I *24140:X O *D sky130_fd_sc_hd__or2_1
*CAP
1 *24141:B1 0
2 *24140:X 0.000299344
3 *300:10 0.000299344
4 *300:10 *24140:A 9.1889e-05
5 *40:14 *300:10 0.000169674
6 *201:51 *300:10 8.51329e-05
*RES
1 *24140:X *300:10 43.7379 
2 *300:10 *24141:B1 38 
*END

*D_NET *301 0.000533507
*CONN
*I *24146:B1 I *D sky130_fd_sc_hd__o211a_1
*I *24144:X O *D sky130_fd_sc_hd__a32o_1
*CAP
1 *24146:B1 2.77218e-05
2 *24144:X 5.35886e-05
3 *301:8 8.13104e-05
4 *24146:B1 *24146:A1 5.3304e-05
5 *24146:B1 *366:8 2.64616e-05
6 *301:8 *24144:B2 1.14452e-05
7 *301:8 *398:10 0.000127272
8 *107:61 *301:8 1.14452e-05
9 *107:73 *301:8 0.000140958
*RES
1 *24144:X *301:8 39.9057 
2 *301:8 *24146:B1 38.6214 
*END

*D_NET *302 0.00300954
*CONN
*I *24146:A2 I *D sky130_fd_sc_hd__o211a_1
*I *24145:Y O *D sky130_fd_sc_hd__nand2_1
*CAP
1 *24146:A2 0.000333135
2 *24145:Y 0.000238189
3 *302:10 0.000571323
4 *24146:A2 *24146:A1 7.84543e-05
5 *24146:A2 *24227:A 0.000219383
6 *24146:A2 *366:8 0.000351502
7 *24146:A2 *366:67 0.000296509
8 *24146:A2 *366:88 8.17328e-05
9 *302:10 *308:86 0.000138444
10 *302:10 *364:95 0.000223043
11 *302:10 *366:75 8.92841e-05
12 *23906:B1_N *302:10 1.22803e-05
13 *24145:B *302:10 3.70187e-05
14 *24148:A2 *302:10 0.000132665
15 *117:21 *302:10 0.000206577
*RES
1 *24145:Y *302:10 45.0014 
2 *302:10 *24146:A2 46.7414 
*END

*D_NET *303 0.00111434
*CONN
*I *24148:B1 I *D sky130_fd_sc_hd__a21oi_1
*I *24147:Y O *D sky130_fd_sc_hd__o21ai_1
*CAP
1 *24148:B1 0
2 *24147:Y 0.000126435
3 *303:6 0.000126435
4 *303:6 *398:63 0.000438457
5 *24147:A1 *303:6 0.000353209
6 *107:90 *303:6 6.9805e-05
*RES
1 *24147:Y *303:6 28.3857 
2 *303:6 *24148:B1 23 
*END

*D_NET *304 0.00515971
*CONN
*I *23887:B I *D sky130_fd_sc_hd__nor2_2
*I *23884:A2 I *D sky130_fd_sc_hd__a22o_1
*I *23888:B I *D sky130_fd_sc_hd__or2_1
*I *24206:A I *D sky130_fd_sc_hd__buf_1
*I *23880:Y O *D sky130_fd_sc_hd__inv_2
*CAP
1 *23887:B 5.75037e-05
2 *23884:A2 0.00017515
3 *23888:B 0.000160038
4 *24206:A 0.000200149
5 *23880:Y 0.000413272
6 *304:12 0.000441162
7 *304:10 0.000639029
8 *304:8 0.000853679
9 *23884:A2 *312:28 0.000121381
10 *23887:B *448:12 4.41619e-05
11 *23887:B *449:10 0.000138727
12 *23888:B *24205:A 9.5877e-05
13 *23888:B *369:8 1.79651e-05
14 *24206:A *24205:A 2.80852e-05
15 *24206:A *362:47 9.50185e-05
16 *24206:A *369:10 3.07161e-05
17 *304:8 *400:86 1.5769e-05
18 *304:10 *24205:A 1.37349e-05
19 *304:10 *314:10 9.63815e-05
20 *304:10 *402:10 0
21 *304:10 *448:12 2.46933e-05
22 *304:10 *449:10 0.00073221
23 *304:12 *24205:A 4.85126e-05
24 *23880:A *304:8 0.000221997
25 *23882:A *304:10 0
26 *23883:A2 *304:8 9.5877e-05
27 *90:118 *24206:A 0
28 *90:118 *304:12 0
29 *95:15 *304:8 0.000182826
30 *263:27 *24206:A 0.000215791
*RES
1 *23880:Y *304:8 43.8621 
2 *304:8 *304:10 10.3571 
3 *304:10 *304:12 1.55357 
4 *304:12 *24206:A 43.0543 
5 *304:12 *23888:B 40.5271 
6 *304:10 *23884:A2 41.19 
7 *304:8 *23887:B 39.9057 
*END

*D_NET *305 0.00130483
*CONN
*I *24318:A I *D sky130_fd_sc_hd__dlygate4sd3_1
*I *24183:Q O *D sky130_fd_sc_hd__dfxtp_1
*CAP
1 *24318:A 7.88485e-05
2 *24183:Q 0.000445149
3 *305:10 0.000523998
4 *305:10 *368:10 6.32688e-05
5 *305:10 *368:30 2.70366e-05
6 *24079:B1 *305:10 0
7 *92:10 *305:10 0.000166532
*RES
1 *24183:Q *305:10 45.25 
2 *305:10 *24318:A 39.0979 
*END

*D_NET *306 0.0134029
*CONN
*I *24210:A I *D sky130_fd_sc_hd__clkbuf_16
*I *24211:A I *D sky130_fd_sc_hd__clkbuf_16
*I *24209:A I *D sky130_fd_sc_hd__clkbuf_16
*I *24208:A I *D sky130_fd_sc_hd__clkbuf_16
*I *24207:X O *D sky130_fd_sc_hd__clkbuf_16
*CAP
1 *24210:A 0
2 *24211:A 0
3 *24209:A 2.79537e-05
4 *24208:A 0
5 *24207:X 0.000354383
6 *306:73 0.00119234
7 *306:54 0.00301469
8 *306:28 0.00133615
9 *306:20 0.00308046
10 *306:14 0.0035387
11 *306:12 0.000354383
12 *24209:A *359:36 2.43903e-05
13 *306:28 *437:23 4.97925e-05
14 *306:54 *310:132 0
15 *306:54 *334:10 2.50227e-05
16 *306:54 *354:109 0.000113266
17 *306:73 *310:132 0
18 *306:73 *310:143 0
19 *306:73 *321:25 0
20 *306:73 *356:29 0.000161444
21 *24036:B *306:73 0.000102425
22 *107:25 *306:28 2.74884e-05
23 *195:10 *24209:A 0
*RES
1 *24207:X *306:12 47.3645 
2 *306:12 *306:14 8 
3 *306:14 *306:20 12.9411 
4 *306:20 *306:28 27.2497 
5 *306:28 *24208:A 23 
6 *306:20 *24209:A 46.6732 
7 *306:14 *306:54 21.2708 
8 *306:54 *24211:A 38 
9 *306:54 *306:73 39.9856 
10 *306:73 *24210:A 23 
*END

*D_NET *307 0.0232437
*CONN
*I *24162:CLK I *D sky130_fd_sc_hd__dfxtp_1
*I *24181:CLK I *D sky130_fd_sc_hd__dfxtp_1
*I *24179:CLK I *D sky130_fd_sc_hd__dfxtp_1
*I *24184:CLK I *D sky130_fd_sc_hd__dfxtp_1
*I *24164:CLK I *D sky130_fd_sc_hd__dfxtp_1
*I *24180:CLK I *D sky130_fd_sc_hd__dfxtp_2
*I *24178:CLK I *D sky130_fd_sc_hd__dfxtp_2
*I *24176:CLK I *D sky130_fd_sc_hd__dfxtp_1
*I *24177:CLK I *D sky130_fd_sc_hd__dfxtp_1
*I *24150:CLK I *D sky130_fd_sc_hd__dfxtp_1
*I *24175:CLK I *D sky130_fd_sc_hd__dfxtp_1
*I *24174:CLK I *D sky130_fd_sc_hd__dfxtp_2
*I *24173:CLK I *D sky130_fd_sc_hd__dfxtp_1
*I *24182:CLK I *D sky130_fd_sc_hd__dfxtp_1
*I *24183:CLK I *D sky130_fd_sc_hd__dfxtp_1
*I *24208:X O *D sky130_fd_sc_hd__clkbuf_16
*CAP
1 *24162:CLK 0.000166913
2 *24181:CLK 0.000559319
3 *24179:CLK 0
4 *24184:CLK 0
5 *24164:CLK 0.000632124
6 *24180:CLK 0
7 *24178:CLK 0.000321064
8 *24176:CLK 6.37255e-05
9 *24177:CLK 0
10 *24150:CLK 2.68281e-05
11 *24175:CLK 0.000186282
12 *24174:CLK 2.34823e-05
13 *24173:CLK 0.000450985
14 *24182:CLK 0.00036847
15 *24183:CLK 0.000165766
16 *24208:X 4.99221e-05
17 *307:170 0.000698315
18 *307:150 0.000847801
19 *307:146 0.000444053
20 *307:144 0.000693935
21 *307:133 0.000734171
22 *307:122 0.00120895
23 *307:105 0.00113186
24 *307:103 0.000714461
25 *307:34 0.00103775
26 *307:32 0.00150776
27 *307:28 0.000986589
28 *307:20 0.000722756
29 *307:14 0.000757436
30 *307:10 0.000717567
31 *307:8 0.000401196
32 *24164:CLK *24012:A 7.42621e-05
33 *24164:CLK *24012:B 2.93845e-05
34 *24164:CLK *24164:D 6.17437e-06
35 *24164:CLK *395:6 0.000125581
36 *24164:CLK *406:50 0.000437159
37 *24164:CLK *471:10 2.93431e-05
38 *24173:CLK *24173:D 4.5591e-05
39 *24173:CLK *332:8 4.08537e-05
40 *24175:CLK *400:37 5.12254e-05
41 *24175:CLK *400:43 9.3813e-05
42 *24176:CLK *311:37 7.09495e-05
43 *24181:CLK *24010:A 0
44 *24181:CLK *24093:A1 0
45 *24181:CLK *357:92 0
46 *24181:CLK *411:38 0
47 *24183:CLK *24099:B 0
48 *24183:CLK *358:10 0
49 *24183:CLK *369:10 0
50 *307:10 *312:39 0.00037111
51 *307:10 *400:97 2.96805e-05
52 *307:10 *427:23 0.000300098
53 *307:14 *312:39 6.48142e-05
54 *307:14 *373:10 0
55 *307:14 *400:37 5.26308e-05
56 *307:14 *400:97 0.000210571
57 *307:14 *429:8 0
58 *307:28 *368:62 0
59 *307:28 *400:43 6.07611e-06
60 *307:34 *330:21 0.000141879
61 *307:34 *369:10 0
62 *307:34 *435:8 8.41012e-05
63 *307:103 *312:39 0.000255856
64 *307:103 *400:110 0
65 *307:103 *427:23 5.94125e-05
66 *307:105 *311:37 5.3304e-05
67 *307:122 *23900:A 0.000159652
68 *307:122 *24254:A 0.000249918
69 *307:122 *24291:A 0.000448468
70 *307:122 *311:43 3.33082e-05
71 *307:122 *313:12 3.28496e-05
72 *307:122 *324:10 0.000140927
73 *307:122 *324:16 0
74 *307:122 *427:45 3.7473e-07
75 *307:133 *312:39 0.000211681
76 *307:133 *427:45 0
77 *307:144 *312:39 0.000229945
78 *307:144 *406:50 0
79 *307:144 *427:45 0
80 *307:146 *395:6 7.42621e-05
81 *307:150 *395:6 0.000184497
82 *23896:B *307:20 0.000317553
83 *23990:C *24150:CLK 0.00014196
84 *23990:C *307:20 0.000128723
85 *24012:C *24164:CLK 9.70259e-06
86 *24084:A1 *307:32 1.5769e-05
87 *24084:A2 *307:32 4.6595e-05
88 *24084:A2 *307:34 0
89 *24084:B1 *307:32 0.000277173
90 *24085:A2 *307:34 0
91 *24096:B *307:144 0
92 *24174:D *307:28 3.32987e-05
93 *24178:D *24178:CLK 9.81682e-05
94 *24182:D *24182:CLK 5.73018e-05
95 *24243:A *24162:CLK 5.50106e-05
96 *24299:A *307:32 0.000103647
97 *65:10 *24162:CLK 9.13289e-05
98 *65:10 *307:146 1.40958e-05
99 *67:8 *24181:CLK 0
100 *69:8 *24183:CLK 3.46181e-05
101 *89:39 *24181:CLK 0
102 *89:39 *307:144 0
103 *89:39 *307:170 0
104 *90:22 *307:34 0
105 *90:118 *24173:CLK 0
106 *90:118 *307:32 0.000395901
107 *90:118 *307:34 0
108 *98:14 *24173:CLK 6.02277e-06
109 *98:14 *307:34 0.00013146
110 *98:20 *307:34 0.000277695
111 *99:59 *307:122 6.9995e-05
112 *100:10 *307:14 7.66085e-05
113 *100:14 *24175:CLK 0
114 *100:14 *307:14 0.000134237
115 *101:12 *307:28 3.83778e-05
116 *101:32 *24150:CLK 5.29672e-05
117 *101:32 *307:20 0.000181931
118 *101:38 *307:14 0
119 *104:8 *307:103 6.68822e-05
120 *104:8 *307:105 0.000198206
121 *104:50 *307:144 0
122 *104:50 *307:150 5.50049e-05
123 *106:12 *24181:CLK 0
124 *107:25 *307:8 5.3304e-05
125 *192:8 *307:14 0
126 *200:12 *307:34 0
127 *263:12 *24182:CLK 5.47808e-05
128 *263:12 *307:34 6.12496e-06
129 *263:14 *307:34 0
130 *265:10 *307:34 0
131 *271:10 *24181:CLK 0
132 *271:10 *307:144 0
133 *271:10 *307:170 0
*RES
1 *24208:X *307:8 38.6214 
2 *307:8 *307:10 5.075 
3 *307:10 *307:14 28.8786 
4 *307:14 *307:20 20.5307 
5 *307:20 *307:28 21.235 
6 *307:28 *307:32 26.5793 
7 *307:32 *307:34 12.1179 
8 *307:34 *24183:CLK 40.61 
9 *307:34 *24182:CLK 44.3386 
10 *307:32 *24173:CLK 44.3593 
11 *307:28 *24174:CLK 23.4971 
12 *307:20 *24175:CLK 41.7079 
13 *307:14 *24150:CLK 24.5743 
14 *307:10 *24177:CLK 38 
15 *307:8 *307:103 20.2407 
16 *307:103 *307:105 4.43286 
17 *307:105 *24176:CLK 24.5743 
18 *307:105 *307:122 47.7832 
19 *307:122 *24178:CLK 28.1475 
20 *307:103 *307:133 20.7793 
21 *307:133 *24180:CLK 38 
22 *307:133 *307:144 23.9486 
23 *307:144 *307:146 2.05071 
24 *307:146 *307:150 4.93 
25 *307:150 *24164:CLK 36.1743 
26 *307:150 *24184:CLK 23 
27 *307:146 *307:170 17.61 
28 *307:170 *24179:CLK 38 
29 *307:170 *24181:CLK 47.9843 
30 *307:144 *24162:CLK 26.48 
*END

*D_NET *308 0.018784
*CONN
*I *24199:CLK I *D sky130_fd_sc_hd__dfxtp_1
*I *24192:CLK I *D sky130_fd_sc_hd__dfxtp_1
*I *24198:CLK I *D sky130_fd_sc_hd__dfxtp_1
*I *24161:CLK I *D sky130_fd_sc_hd__dfxtp_1
*I *24158:CLK I *D sky130_fd_sc_hd__dfxtp_2
*I *24151:CLK I *D sky130_fd_sc_hd__dfxtp_1
*I *24160:CLK I *D sky130_fd_sc_hd__dfxtp_1
*I *24200:CLK I *D sky130_fd_sc_hd__dfxtp_1
*I *24201:CLK I *D sky130_fd_sc_hd__dfxtp_1
*I *24202:CLK I *D sky130_fd_sc_hd__dfxtp_1
*I *24159:CLK I *D sky130_fd_sc_hd__dfxtp_2
*I *24156:CLK I *D sky130_fd_sc_hd__dfxtp_1
*I *24157:CLK I *D sky130_fd_sc_hd__dfxtp_1
*I *24212:A I *D sky130_fd_sc_hd__clkinv_1
*I *24209:X O *D sky130_fd_sc_hd__clkbuf_16
*CAP
1 *24199:CLK 0.000275214
2 *24192:CLK 0
3 *24198:CLK 0.000426776
4 *24161:CLK 5.90544e-05
5 *24158:CLK 0.000143204
6 *24151:CLK 0
7 *24160:CLK 0.000179041
8 *24200:CLK 0.000168593
9 *24201:CLK 0
10 *24202:CLK 0
11 *24159:CLK 0
12 *24156:CLK 0
13 *24157:CLK 0
14 *24212:A 5.45698e-05
15 *24209:X 0.000104666
16 *308:168 0.000228055
17 *308:162 0.00101205
18 *308:145 0.00112099
19 *308:129 0.000202258
20 *308:94 0.000267455
21 *308:86 0.000836505
22 *308:78 0.00118398
23 *308:65 0.00060437
24 *308:61 0.000570911
25 *308:50 0.000651623
26 *308:37 0.000425313
27 *308:29 0.000923345
28 *308:25 0.000834123
29 *308:19 0.000880997
30 *308:17 0.000312549
31 *308:8 0.000159236
32 *24198:CLK *432:30 9.27513e-05
33 *24200:CLK *24144:B2 1.01436e-05
34 *24200:CLK *343:23 0
35 *308:19 *365:19 0
36 *308:19 *407:10 0
37 *308:25 *365:19 0
38 *308:25 *407:10 0
39 *308:37 *24157:D 0.000189681
40 *308:37 *483:8 3.96053e-05
41 *308:50 *24156:D 1.64354e-05
42 *308:50 *365:8 9.41704e-05
43 *308:50 *367:6 1.59094e-05
44 *308:50 *367:23 0.0002459
45 *308:61 *367:23 3.71251e-05
46 *308:78 *24159:D 1.64354e-05
47 *308:78 *326:10 0.00015795
48 *308:78 *440:23 4.05309e-05
49 *308:86 *326:10 5.3304e-05
50 *308:86 *359:29 2.90694e-05
51 *308:86 *366:75 5.50106e-05
52 *308:86 *442:23 0.00035673
53 *308:94 *326:33 0
54 *308:94 *399:10 0.00011028
55 *308:145 *365:19 0
56 *308:162 *365:38 0
57 *308:162 *365:46 0
58 *308:162 *457:8 0
59 *308:168 *353:63 0.000169674
60 *308:168 *365:46 0
61 *496:DIODE *308:37 1.58805e-05
62 *23897:B *308:29 0.000244526
63 *23897:B *308:37 0.000209729
64 *23989:A2 *308:37 0.000195248
65 *23989:B1 *308:29 0.000237534
66 *23989:B1 *308:37 0.000407218
67 *23989:C1 *308:37 6.08032e-05
68 *23998:C1 *308:86 0.00023232
69 *24124:C *24199:CLK 0.000166386
70 *24145:B *308:86 9.0308e-05
71 *45:10 *24160:CLK 0
72 *46:10 *308:86 0.00013961
73 *84:8 *24198:CLK 4.85812e-05
74 *88:10 *308:94 0.000177909
75 *89:96 *308:25 0.000114483
76 *89:113 *308:25 5.94125e-05
77 *89:127 *24160:CLK 0
78 *89:127 *308:25 0
79 *89:133 *24160:CLK 0
80 *89:133 *308:25 0
81 *89:133 *308:65 0.000219883
82 *89:133 *308:78 0.000788861
83 *90:83 *308:37 0.000472036
84 *102:6 *308:25 4.67488e-05
85 *105:59 *24158:CLK 0.000173315
86 *105:59 *24161:CLK 7.27182e-05
87 *107:44 *24199:CLK 0.000482782
88 *107:44 *308:162 0.000228909
89 *107:73 *24200:CLK 2.60152e-05
90 *162:18 *308:162 1.24376e-05
91 *162:18 *308:168 0
92 *192:34 *308:19 0
93 *192:34 *308:25 0
94 *192:34 *308:145 0
95 *192:34 *308:162 0
96 *192:34 *308:168 0.000137071
97 *193:10 *308:25 0
98 *194:37 *308:25 0.00021356
99 *194:56 *308:86 1.56762e-05
100 *287:8 *308:162 0
101 *302:10 *308:86 0.000138444
*RES
1 *24209:X *308:8 24.595 
2 *308:8 *24212:A 23.6214 
3 *308:8 *308:17 15 
4 *308:17 *308:19 2.25786 
5 *308:19 *308:25 29.4171 
6 *308:25 *308:29 18.3143 
7 *308:29 *308:37 28.8993 
8 *308:37 *24157:CLK 23 
9 *308:29 *308:50 24.3629 
10 *308:50 *24156:CLK 23 
11 *308:50 *308:61 19.4121 
12 *308:61 *308:65 19.4329 
13 *308:65 *24159:CLK 23 
14 *308:65 *308:78 26.8279 
15 *308:78 *308:86 29.1271 
16 *308:86 *308:94 36.4421 
17 *308:94 *24202:CLK 23 
18 *308:86 *24201:CLK 23 
19 *308:78 *24200:CLK 40.61 
20 *308:61 *24160:CLK 40.61 
21 *308:25 *24151:CLK 23 
22 *308:19 *308:129 15 
23 *308:129 *24158:CLK 26.48 
24 *308:129 *24161:CLK 24.5743 
25 *308:17 *308:145 2.96214 
26 *308:145 *24198:CLK 44.235 
27 *308:145 *308:162 24.0107 
28 *308:162 *308:168 35.7793 
29 *308:168 *24192:CLK 23 
30 *308:162 *24199:CLK 31.2443 
*END

*D_NET *309 0.0178755
*CONN
*I *24213:A I *D sky130_fd_sc_hd__bufinv_16
*I *24171:CLK I *D sky130_fd_sc_hd__dfxtp_1
*I *24169:CLK I *D sky130_fd_sc_hd__dfxtp_1
*I *24168:CLK I *D sky130_fd_sc_hd__dfxtp_1
*I *24172:CLK I *D sky130_fd_sc_hd__dfxtp_1
*I *24191:CLK I *D sky130_fd_sc_hd__dfxtp_1
*I *24167:CLK I *D sky130_fd_sc_hd__dfxtp_1
*I *24166:CLK I *D sky130_fd_sc_hd__dfxtp_1
*I *24185:CLK I *D sky130_fd_sc_hd__dfxtp_1
*I *24165:CLK I *D sky130_fd_sc_hd__dfxtp_1
*I *24155:CLK I *D sky130_fd_sc_hd__dfxtp_1
*I *24152:CLK I *D sky130_fd_sc_hd__dfxtp_1
*I *24210:X O *D sky130_fd_sc_hd__clkbuf_16
*CAP
1 *24213:A 0
2 *24171:CLK 0
3 *24169:CLK 0.000389277
4 *24168:CLK 0
5 *24172:CLK 0.000233592
6 *24191:CLK 0
7 *24167:CLK 0
8 *24166:CLK 0.000176645
9 *24185:CLK 0
10 *24165:CLK 0.000292857
11 *24155:CLK 7.86814e-05
12 *24152:CLK 0.000175933
13 *24210:X 0
14 *309:149 0.000200138
15 *309:124 0.000858947
16 *309:116 0.000809494
17 *309:103 0.00132012
18 *309:92 0.00107596
19 *309:81 0.000565369
20 *309:46 0.000482787
21 *309:44 0.000617456
22 *309:29 0.000532594
23 *309:18 0.000582867
24 *309:12 0.00152475
25 *309:4 0.00128486
26 *24152:CLK *24152:D 1.64354e-05
27 *24165:CLK *24165:D 0.000121046
28 *24165:CLK *357:76 0
29 *24165:CLK *449:8 2.12982e-05
30 *24165:CLK *450:12 0.000198654
31 *24166:CLK *346:6 0.000123795
32 *24169:CLK *24169:D 8.38304e-05
33 *24169:CLK *453:6 2.30292e-05
34 *24172:CLK *24172:D 2.3853e-05
35 *24172:CLK *455:10 0.000187129
36 *309:12 *24044:B 0.000198206
37 *309:12 *321:25 0.000153381
38 *309:12 *360:74 0.000532428
39 *309:18 *362:170 6.48142e-05
40 *309:29 *371:8 9.48381e-06
41 *309:46 *450:12 0.000301137
42 *309:81 *360:74 7.75329e-06
43 *309:81 *360:87 2.09183e-05
44 *309:81 *360:100 7.91206e-05
45 *309:81 *362:170 0.000614055
46 *309:92 *322:6 0.000395901
47 *309:92 *376:10 0
48 *309:92 *422:10 0.000111852
49 *309:103 *24076:A2 0
50 *309:103 *376:10 0
51 *309:103 *378:8 0
52 *309:116 *24171:D 0.000128696
53 *309:124 *24168:D 1.64354e-05
54 *309:124 *452:8 6.17437e-06
55 *309:124 *453:6 0.000262949
56 *309:149 *353:86 5.65617e-05
57 *24050:A1 *309:12 5.67058e-05
58 *24050:A1 *309:149 0.000188077
59 *58:10 *309:103 0.000103176
60 *93:8 *309:103 4.23714e-05
61 *97:17 *24165:CLK 0.000385735
62 *97:17 *309:29 0.000455214
63 *97:17 *309:44 0.000447981
64 *97:17 *309:46 0.000631804
65 *187:35 *309:81 0.000166532
66 *188:12 *309:18 3.0647e-05
67 *188:12 *309:81 5.56306e-05
68 *227:10 *309:149 0
69 *227:21 *309:149 0
70 *234:10 *309:12 5.67058e-05
71 *239:10 *309:12 8.0689e-05
72 *239:10 *309:149 8.1796e-05
73 *258:22 *309:103 0.000131169
74 *260:25 *309:103 0
*RES
1 *24210:X *309:4 23 
2 *309:4 *309:12 37.7029 
3 *309:12 *309:18 18.3764 
4 *309:18 *24152:CLK 26.0036 
5 *309:18 *309:29 20.9554 
6 *309:29 *24155:CLK 39.5639 
7 *309:29 *309:44 5.95536 
8 *309:44 *309:46 8.24429 
9 *309:46 *24165:CLK 46.0993 
10 *309:46 *24185:CLK 38 
11 *309:44 *24166:CLK 41.0243 
12 *309:12 *309:81 23.2443 
13 *309:81 *24167:CLK 23 
14 *309:81 *309:92 22.395 
15 *309:92 *24191:CLK 38 
16 *309:92 *309:103 29.5829 
17 *309:103 *24172:CLK 27.93 
18 *309:103 *309:116 5.88286 
19 *309:116 *309:124 39.9014 
20 *309:124 *24168:CLK 23 
21 *309:124 *24169:CLK 30.7679 
22 *309:116 *24171:CLK 23 
23 *309:4 *309:149 35.0129 
24 *309:149 *24213:A 23 
*END

*D_NET *310 0.0235329
*CONN
*I *24170:CLK I *D sky130_fd_sc_hd__dfxtp_1
*I *24189:CLK I *D sky130_fd_sc_hd__dfxtp_1
*I *24190:CLK I *D sky130_fd_sc_hd__dfxtp_1
*I *24188:CLK I *D sky130_fd_sc_hd__dfxtp_2
*I *24187:CLK I *D sky130_fd_sc_hd__dfxtp_1
*I *24214:A I *D sky130_fd_sc_hd__clkbuf_4
*I *24186:CLK I *D sky130_fd_sc_hd__dfxtp_1
*I *24203:CLK I *D sky130_fd_sc_hd__dfxtp_1
*I *24197:CLK I *D sky130_fd_sc_hd__dfxtp_1
*I *24196:CLK I *D sky130_fd_sc_hd__dfxtp_1
*I *24154:CLK I *D sky130_fd_sc_hd__dfxtp_1
*I *24195:CLK I *D sky130_fd_sc_hd__dfxtp_1
*I *24193:CLK I *D sky130_fd_sc_hd__dfxtp_1
*I *24163:CLK I *D sky130_fd_sc_hd__dfxtp_1
*I *24194:CLK I *D sky130_fd_sc_hd__dfxtp_1
*I *24211:X O *D sky130_fd_sc_hd__clkbuf_16
*CAP
1 *24170:CLK 0
2 *24189:CLK 0
3 *24190:CLK 2.0995e-05
4 *24188:CLK 0.000204479
5 *24187:CLK 0.000177851
6 *24214:A 0
7 *24186:CLK 0.000310569
8 *24203:CLK 0
9 *24197:CLK 0
10 *24196:CLK 0.000297959
11 *24154:CLK 0
12 *24195:CLK 3.54582e-05
13 *24193:CLK 2.34823e-05
14 *24163:CLK 0
15 *24194:CLK 0
16 *24211:X 6.38262e-05
17 *310:188 0.00120993
18 *310:177 0.000357906
19 *310:160 0.000508456
20 *310:156 0.00187762
21 *310:143 0.00103247
22 *310:132 0.000563577
23 *310:116 0.00044069
24 *310:110 0.000726303
25 *310:85 0.000628645
26 *310:74 0.00168274
27 *310:47 0.0004885
28 *310:39 0.00122075
29 *310:30 0.00123817
30 *310:22 0.00101064
31 *310:20 0.00209364
32 *310:14 0.000876648
33 *310:8 0.00114499
34 *24186:CLK *24186:D 5.67058e-05
35 *24186:CLK *363:107 0.000274083
36 *24188:CLK *24188:D 5.70419e-05
37 *24188:CLK *354:170 5.3304e-05
38 *24190:CLK *320:10 1.14154e-05
39 *24195:CLK *24195:D 3.27248e-05
40 *24196:CLK *414:10 2.76611e-06
41 *310:14 *333:23 7.76364e-06
42 *310:14 *343:25 0.000126188
43 *310:14 *356:72 4.79641e-05
44 *310:14 *361:126 0.000216712
45 *310:14 *361:145 0.000393287
46 *310:14 *367:103 8.4047e-05
47 *310:20 *24203:D 4.9054e-06
48 *310:20 *356:72 7.59642e-05
49 *310:22 *367:62 0
50 *310:22 *367:75 0
51 *310:22 *462:10 0
52 *310:30 *357:131 0
53 *310:30 *367:62 4.21594e-06
54 *310:30 *392:8 8.62783e-05
55 *310:39 *24194:D 0.000126899
56 *310:47 *24193:D 8.90284e-05
57 *310:47 *354:109 8.51432e-05
58 *310:47 *464:10 0
59 *310:74 *356:83 0.000100733
60 *310:74 *356:87 0
61 *310:74 *367:75 0
62 *310:74 *370:10 0
63 *310:110 *363:107 0.000118987
64 *310:116 *363:107 7.78764e-05
65 *310:132 *334:10 0
66 *310:132 *355:262 0.000139647
67 *310:143 *354:170 0.000246757
68 *310:143 *355:262 0.000616956
69 *310:156 *336:8 0
70 *310:156 *354:170 5.01986e-05
71 *310:156 *355:262 0.000672529
72 *310:156 *355:279 0
73 *310:160 *320:10 0.000115483
74 *310:177 *522:DIODE 5.50106e-05
75 *310:177 *320:10 0.000146179
76 *310:177 *354:227 0.000169683
77 *310:188 *477:10 0
78 *23955:B *310:8 0
79 *23955:B *310:14 0
80 *23957:B *310:110 2.93747e-05
81 *24116:B1 *310:177 5.50049e-05
82 *40:14 *310:74 0.000102738
83 *74:10 *24188:CLK 5.47808e-05
84 *74:10 *310:156 0
85 *75:8 *310:188 0
86 *81:8 *310:30 0
87 *83:8 *24196:CLK 0
88 *150:8 *310:74 0
89 *155:20 *310:8 0.000114083
90 *155:20 *310:14 3.47781e-05
91 *155:20 *310:110 0.000185428
92 *156:32 *310:14 0
93 *187:20 *24188:CLK 0.000288279
94 *280:12 *24188:CLK 4.93944e-05
95 *281:8 *310:143 3.62219e-05
96 *306:54 *310:132 0
97 *306:73 *310:132 0
98 *306:73 *310:143 0
*RES
1 *24211:X *310:8 39.5536 
2 *310:8 *310:14 27.2214 
3 *310:14 *310:20 19.3293 
4 *310:20 *310:22 7.89214 
5 *310:22 *310:30 24.4871 
6 *310:30 *24194:CLK 23 
7 *310:30 *310:39 11.6 
8 *310:39 *310:47 38.5964 
9 *310:47 *24163:CLK 23 
10 *310:39 *24193:CLK 23.4971 
11 *310:22 *24195:CLK 38.6214 
12 *310:20 *310:74 40.5614 
13 *310:74 *24154:CLK 23 
14 *310:74 *310:85 21.09 
15 *310:85 *24196:CLK 43.7793 
16 *310:85 *24197:CLK 38 
17 *310:14 *24203:CLK 23 
18 *310:8 *310:110 21.815 
19 *310:110 *310:116 3.045 
20 *310:116 *24186:CLK 30.7679 
21 *310:116 *24214:A 23 
22 *310:110 *310:132 16.9057 
23 *310:132 *24187:CLK 41.0036 
24 *310:132 *310:143 8.24429 
25 *310:143 *24188:CLK 44.3593 
26 *310:143 *310:156 12.47 
27 *310:156 *310:160 17.5271 
28 *310:160 *24190:CLK 23.4971 
29 *310:160 *310:177 37.3121 
30 *310:177 *24189:CLK 23 
31 *310:156 *310:188 37.2471 
32 *310:188 *24170:CLK 23 
*END

*D_NET *311 0.00631481
*CONN
*I *24291:A I *D sky130_fd_sc_hd__dlygate4sd3_1
*I *23900:B I *D sky130_fd_sc_hd__nor2_1
*I *23994:B I *D sky130_fd_sc_hd__nor2_1
*I *23883:A1 I *D sky130_fd_sc_hd__o22a_1
*I *24176:Q O *D sky130_fd_sc_hd__dfxtp_1
*CAP
1 *24291:A 0.000186571
2 *23900:B 0
3 *23994:B 0
4 *23883:A1 0
5 *24176:Q 0
6 *311:43 0.000190595
7 *311:37 0.000789513
8 *311:25 0.000972042
9 *311:14 0.000663129
10 *311:4 0.000849681
11 *24291:A *24254:A 0.000247397
12 *311:14 *362:150 0.000197479
13 *311:14 *368:110 0.000518218
14 *311:14 *423:59 1.01436e-05
15 *311:14 *449:10 4.38375e-05
16 *311:25 *324:16 0
17 *311:25 *325:8 0
18 *311:25 *368:110 0.000100061
19 *311:37 *24088:A1 0.000145304
20 *311:37 *24176:D 0.000187079
21 *311:43 *494:DIODE 0
22 *311:43 *312:39 0
23 *311:43 *324:16 0
24 *311:43 *355:14 0
25 *311:43 *368:110 0
26 *311:43 *427:45 8.48232e-05
27 *23883:A2 *311:14 9.5877e-05
28 *24176:CLK *311:37 7.09495e-05
29 *62:10 *24291:A 0.000128583
30 *62:10 *311:25 1.01436e-05
31 *95:15 *311:14 8.52481e-05
32 *95:23 *311:14 0.000112823
33 *103:14 *311:14 8.62783e-05
34 *103:25 *311:14 3.95159e-06
35 *200:44 *311:25 0
36 *307:105 *311:37 5.3304e-05
37 *307:122 *24291:A 0.000448468
38 *307:122 *311:43 3.33082e-05
*RES
1 *24176:Q *311:4 23 
2 *311:4 *311:14 42.6357 
3 *311:14 *23883:A1 23 
4 *311:4 *311:25 18.0036 
5 *311:25 *311:37 24.5286 
6 *311:37 *311:43 33.3143 
7 *311:43 *23994:B 23 
8 *311:37 *23900:B 23 
9 *311:25 *24291:A 44.815 
*END

*D_NET *312 0.00940828
*CONN
*I *24275:A I *D sky130_fd_sc_hd__dlygate4sd3_1
*I *24001:A I *D sky130_fd_sc_hd__nand2_1
*I *23884:A1 I *D sky130_fd_sc_hd__a22o_1
*I *24177:Q O *D sky130_fd_sc_hd__dfxtp_1
*CAP
1 *24275:A 0.000366745
2 *24001:A 2.61643e-05
3 *23884:A1 0
4 *24177:Q 0
5 *312:39 0.000946214
6 *312:35 0.00179298
7 *312:28 0.000874032
8 *312:12 0.00118344
9 *312:4 0.000815592
10 *24275:A *24089:B1 8.20126e-06
11 *312:12 *23895:B 0.000189203
12 *312:12 *362:14 0.000530156
13 *312:12 *368:62 0
14 *312:12 *428:8 8.62876e-05
15 *312:28 *23884:B2 5.50106e-05
16 *312:28 *23895:A_N 1.56665e-05
17 *312:28 *362:33 4.96717e-05
18 *312:28 *400:69 0
19 *312:28 *423:25 0.00010812
20 *312:28 *423:51 1.12863e-05
21 *312:35 *24089:B1 5.08471e-05
22 *312:35 *24177:D 0.000146213
23 *312:39 *339:8 5.45887e-05
24 *312:39 *400:110 0
25 *312:39 *400:135 0
26 *312:39 *427:45 0
27 *23884:A2 *312:28 0.000121381
28 *24002:C1 *24001:A 1.32314e-05
29 *24086:B *312:12 5.65559e-05
30 *24086:B *312:28 0.000138607
31 *89:39 *312:39 2.71291e-05
32 *99:12 *312:28 9.28078e-06
33 *100:10 *312:12 0.000228001
34 *104:40 *24001:A 5.50106e-05
35 *104:40 *312:39 0
36 *107:14 *312:12 0.000315259
37 *192:8 *312:39 0
38 *307:10 *312:39 0.00037111
39 *307:14 *312:39 6.48142e-05
40 *307:103 *312:39 0.000255856
41 *307:133 *312:39 0.000211681
42 *307:144 *312:39 0.000229945
43 *311:43 *312:39 0
*RES
1 *24177:Q *312:4 23 
2 *312:4 *312:12 40.2329 
3 *312:12 *312:28 43.4643 
4 *312:28 *23884:A1 23 
5 *312:4 *312:35 6.815 
6 *312:35 *312:39 35.9214 
7 *312:39 *24001:A 38.6214 
8 *312:35 *24275:A 27.8057 
*END

*D_NET *313 0.0064596
*CONN
*I *24254:A I *D sky130_fd_sc_hd__dlygate4sd3_1
*I *23885:A1 I *D sky130_fd_sc_hd__o22a_1
*I *24178:Q O *D sky130_fd_sc_hd__dfxtp_2
*CAP
1 *24254:A 0.000714311
2 *23885:A1 0.000149966
3 *24178:Q 0
4 *313:12 0.000726428
5 *313:4 0.00129077
6 *24254:A *23903:A 3.22879e-05
7 *313:12 *362:150 0.000307223
8 *313:12 *362:170 0.00021261
9 *313:12 *410:8 0.000194327
10 *509:DIODE *24254:A 8.264e-05
11 *23885:A2 *23885:A1 3.16784e-05
12 *24291:A *24254:A 0.000247397
13 *50:8 *313:12 0.00014411
14 *90:133 *24254:A 0.000269781
15 *95:23 *313:12 0.000446356
16 *95:36 *23885:A1 4.39607e-05
17 *95:36 *313:12 0.000231507
18 *99:63 *24254:A 0.00023879
19 *99:67 *24254:A 2.9938e-05
20 *106:12 *24254:A 0.000695805
21 *106:29 *24254:A 8.6949e-05
22 *307:122 *24254:A 0.000249918
23 *307:122 *313:12 3.28496e-05
*RES
1 *24178:Q *313:4 23 
2 *313:4 *313:12 47.5657 
3 *313:12 *23885:A1 25.5271 
4 *313:4 *24254:A 43.6729 
*END

*D_NET *314 0.00115605
*CONN
*I *23884:B1 I *D sky130_fd_sc_hd__a22o_1
*I *24205:A I *D sky130_fd_sc_hd__buf_1
*I *23882:Y O *D sky130_fd_sc_hd__inv_2
*CAP
1 *23884:B1 0
2 *24205:A 0.000196431
3 *23882:Y 0.000167312
4 *314:10 0.000363743
5 *24205:A *362:47 1.14452e-05
6 *24205:A *369:8 1.57571e-05
7 *24205:A *402:10 0
8 *24205:A *413:10 0
9 *314:10 *402:10 0
10 *23888:B *24205:A 9.5877e-05
11 *24206:A *24205:A 2.80852e-05
12 *98:8 *24205:A 2.02872e-05
13 *263:27 *24205:A 9.84851e-05
14 *304:10 *24205:A 1.37349e-05
15 *304:10 *314:10 9.63815e-05
16 *304:12 *24205:A 4.85126e-05
*RES
1 *23882:Y *314:10 41.2314 
2 *314:10 *24205:A 42.3086 
3 *314:10 *23884:B1 38 
*END

*D_NET *315 0.0174506
*CONN
*I *24098:B I *D sky130_fd_sc_hd__and2_1
*I *24078:A1 I *D sky130_fd_sc_hd__a21o_1
*I *24081:C_N I *D sky130_fd_sc_hd__or3b_1
*I *505:DIODE I *D sky130_fd_sc_hd__diode_2
*I *504:DIODE I *D sky130_fd_sc_hd__diode_2
*I *514:DIODE I *D sky130_fd_sc_hd__diode_2
*I *24319:X O *D sky130_fd_sc_hd__dlymetal6s2s_1
*CAP
1 *24098:B 9.91695e-05
2 *24078:A1 0
3 *24081:C_N 6.82857e-05
4 *505:DIODE 0
5 *504:DIODE 0
6 *514:DIODE 0
7 *24319:X 3.77894e-05
8 *315:48 0.000139168
9 *315:42 0.000389529
10 *315:33 0.000445642
11 *315:27 0.000326
12 *315:18 0.000939804
13 *315:10 0.00435597
14 *315:8 0.00355379
15 *315:10 *24327:A 3.4932e-05
16 *315:10 *369:14 0.00109495
17 *315:10 *391:10 0.00117853
18 *315:18 *391:10 0.00238017
19 *315:18 *402:10 0.00146599
20 *315:33 *369:10 0.000116321
21 *315:33 *391:10 0.000354788
22 *315:42 *23875:A 4.38068e-06
23 *24078:A2 *315:42 0.000118021
24 *3:17 *315:10 0
25 *12:10 *315:10 0
26 *14:10 *315:10 0
27 *23:10 *315:10 0
28 *25:10 *315:10 0
29 *26:10 *315:18 0
30 *68:8 *315:33 0.000114083
31 *98:14 *24081:C_N 2.30292e-05
32 *98:20 *315:48 6.93449e-05
33 *263:14 *315:48 0.000140949
*RES
1 *24319:X *315:8 38.6214 
2 *315:8 *315:10 86.4511 
3 *315:10 *315:18 47.3454 
4 *315:18 *514:DIODE 23 
5 *315:18 *315:27 1.82286 
6 *315:27 *315:33 34.7229 
7 *315:33 *504:DIODE 23 
8 *315:33 *315:42 4.68143 
9 *315:42 *315:48 31.9057 
10 *315:48 *505:DIODE 23 
11 *315:48 *24081:C_N 24.4707 
12 *315:42 *24078:A1 23 
13 *315:27 *24098:B 24.5743 
*END

*D_NET *316 0.000333084
*CONN
*I *24322:A I *D sky130_fd_sc_hd__buf_2
*I *23886:X O *D sky130_fd_sc_hd__and3_1
*CAP
1 *24322:A 4.24511e-05
2 *23886:X 0.000121053
3 *316:8 0.000163504
4 *316:8 *451:10 6.07611e-06
5 *29:10 *316:8 0
6 *95:66 *316:8 0
*RES
1 *23886:X *316:8 40.2579 
2 *316:8 *24322:A 38.6214 
*END

*D_NET *317 0.0014371
*CONN
*I *24159:D I *D sky130_fd_sc_hd__dfxtp_2
*I *24283:X O *D sky130_fd_sc_hd__dlygate4sd3_1
*CAP
1 *24159:D 8.45249e-06
2 *24283:X 0.000320817
3 *317:10 0.000329269
4 *317:10 *23936:B2 0.000102629
5 *317:10 *359:8 4.83778e-05
6 *317:10 *359:29 4.58924e-05
7 *317:10 *359:36 5.86165e-05
8 *317:10 *434:10 0.000182585
9 *317:10 *434:27 0.000270722
10 *194:56 *317:10 5.3304e-05
11 *308:78 *24159:D 1.64354e-05
*RES
1 *24283:X *317:10 46.1614 
2 *317:10 *24159:D 38.1916 
*END

*D_NET *318 0.00241194
*CONN
*I *23910:A I *D sky130_fd_sc_hd__nor2_1
*I *23909:A I *D sky130_fd_sc_hd__and2_1
*I *24140:A I *D sky130_fd_sc_hd__or2_1
*I *24285:X O *D sky130_fd_sc_hd__dlygate4sd3_1
*CAP
1 *23910:A 0
2 *23909:A 0
3 *24140:A 0.000284176
4 *24285:X 0
5 *318:36 0.000153507
6 *318:23 0.000471491
7 *318:4 0.00060216
8 *23909:B *318:23 9.84794e-05
9 *23909:B *318:36 0.000304291
10 *23947:A2 *318:23 1.72202e-05
11 *82:8 *318:23 3.47776e-05
12 *111:14 *318:36 1.14452e-05
13 *112:14 *318:23 8.62783e-05
14 *112:14 *318:36 0
15 *148:16 *318:23 0.000188326
16 *298:10 *318:36 6.79006e-05
17 *300:10 *24140:A 9.1889e-05
*RES
1 *24285:X *318:4 23 
2 *318:4 *24140:A 28.4064 
3 *318:4 *318:23 35.8829 
4 *318:23 *23909:A 23 
5 *318:23 *318:36 34.06 
6 *318:36 *23910:A 23 
*END

*D_NET *319 0.00234142
*CONN
*I *23950:B1 I *D sky130_fd_sc_hd__a21oi_1
*I *23949:B I *D sky130_fd_sc_hd__and3_1
*I *24118:A I *D sky130_fd_sc_hd__or2_1
*I *24286:X O *D sky130_fd_sc_hd__dlygate4sd3_1
*CAP
1 *23950:B1 0
2 *23949:B 0.000197583
3 *24118:A 0
4 *24286:X 0.000203634
5 *319:27 0.000337325
6 *319:14 0.000216033
7 *319:6 0.000559409
8 *23949:B *344:6 3.59538e-05
9 *23949:B *344:8 2.4754e-05
10 *319:14 *356:87 6.57448e-05
11 *319:27 *344:6 5.3304e-05
12 *23949:C *23949:B 0
13 *23950:A2 *23949:B 0.000135382
14 *150:46 *23949:B 5.67058e-06
15 *151:23 *319:27 0.000112169
16 *152:8 *319:14 8.51329e-05
17 *152:8 *319:27 0.000272303
18 *284:10 *319:14 3.70187e-05
*RES
1 *24286:X *319:6 25.5271 
2 *319:6 *319:14 33.8321 
3 *319:14 *24118:A 23 
4 *319:6 *319:27 34.2879 
5 *319:27 *23949:B 27.35 
6 *319:27 *23950:B1 23 
*END

*D_NET *320 0.00119971
*CONN
*I *24190:D I *D sky130_fd_sc_hd__dfxtp_1
*I *24287:X O *D sky130_fd_sc_hd__dlygate4sd3_1
*CAP
1 *24190:D 0
2 *24287:X 0.000364836
3 *320:10 0.000364836
4 *320:10 *522:DIODE 0.00014196
5 *24116:B1 *320:10 5.50049e-05
6 *24190:CLK *320:10 1.14154e-05
7 *310:160 *320:10 0.000115483
8 *310:177 *320:10 0.000146179
*RES
1 *24287:X *320:10 31.3064 
2 *320:10 *24190:D 23 
*END

*D_NET *321 0.00321612
*CONN
*I *24044:A I *D sky130_fd_sc_hd__or2_1
*I *24035:B1 I *D sky130_fd_sc_hd__a21oi_1
*I *24288:X O *D sky130_fd_sc_hd__dlygate4sd3_1
*CAP
1 *24044:A 0
2 *24035:B1 0.000176327
3 *24288:X 0
4 *321:25 0.00113543
5 *321:6 0.00131176
6 *24035:B1 *24035:A2 5.67058e-05
7 *24035:B1 *353:86 0
8 *24035:B1 *473:10 0.000121884
9 *321:25 *24044:B 5.70419e-05
10 *321:25 *353:86 0
11 *24036:B *24035:B1 0
12 *24036:B *321:25 0
13 *24050:A1 *321:25 0.000176355
14 *226:10 *321:25 2.72245e-05
15 *306:73 *321:25 0
16 *309:12 *321:25 0.000153381
*RES
1 *24288:X *321:6 38 
2 *321:6 *24035:B1 41.9357 
3 *321:6 *321:25 32.5243 
4 *321:25 *24044:A 23 
*END

*D_NET *322 0.00151592
*CONN
*I *24167:D I *D sky130_fd_sc_hd__dfxtp_1
*I *24289:X O *D sky130_fd_sc_hd__dlygate4sd3_1
*CAP
1 *24167:D 0
2 *24289:X 0.000516406
3 *322:6 0.000516406
4 *322:6 *422:10 5.50049e-05
5 *24270:A *322:6 3.22051e-05
6 *309:92 *322:6 0.000395901
*RES
1 *24289:X *322:6 32.513 
2 *322:6 *24167:D 23 
*END

*D_NET *323 0.000686083
*CONN
*I *24228:A I *D sky130_fd_sc_hd__buf_2
*I *24290:X O *D sky130_fd_sc_hd__dlygate4sd3_1
*CAP
1 *24228:A 0
2 *24290:X 0.000261756
3 *323:10 0.000261756
4 *323:10 *23899:A1 8.62783e-05
5 *323:10 *23990:A 1.32314e-05
6 *323:10 *364:29 0
7 *323:10 *437:23 0
8 *101:51 *323:10 6.30615e-05
*RES
1 *24290:X *323:10 42.4329 
2 *323:10 *24228:A 38 
*END

*D_NET *324 0.00355193
*CONN
*I *24088:A1 I *D sky130_fd_sc_hd__o211a_1
*I *24087:C_N I *D sky130_fd_sc_hd__or3b_1
*I *23898:B I *D sky130_fd_sc_hd__and2_1
*I *24291:X O *D sky130_fd_sc_hd__dlygate4sd3_1
*CAP
1 *24088:A1 0.000193913
2 *24087:C_N 0
3 *23898:B 0.000331334
4 *24291:X 0.000222447
5 *324:16 0.000589318
6 *324:10 0.000674344
7 *23898:B *23898:A 9.78729e-06
8 *23898:B *362:120 0.000130971
9 *23898:B *362:130 0.000347197
10 *24088:A1 *24176:D 5.50049e-05
11 *24088:A1 *368:110 0.000281845
12 *324:10 *23900:A 0
13 *324:10 *325:8 0.000107218
14 *324:16 *23898:A 9.9002e-05
15 *324:16 *368:80 4.6318e-06
16 *324:16 *368:91 3.97502e-05
17 *324:16 *368:110 3.47776e-05
18 *24087:B *324:16 8.72173e-05
19 *62:10 *24088:A1 5.69371e-05
20 *307:122 *324:10 0.000140927
21 *307:122 *324:16 0
22 *311:25 *324:16 0
23 *311:37 *24088:A1 0.000145304
24 *311:43 *324:16 0
*RES
1 *24291:X *324:10 41.48 
2 *324:10 *324:16 20.365 
3 *324:16 *23898:B 29.8564 
4 *324:16 *24087:C_N 23 
5 *324:10 *24088:A1 44.3386 
*END

*D_NET *325 0.00103653
*CONN
*I *24176:D I *D sky130_fd_sc_hd__dfxtp_1
*I *24292:X O *D sky130_fd_sc_hd__dlygate4sd3_1
*CAP
1 *24176:D 6.51038e-05
2 *24292:X 0.000267826
3 *325:8 0.000332929
4 *24176:D *368:110 2.13733e-05
5 *325:8 *23900:A 0
6 *24088:A1 *24176:D 5.50049e-05
7 *62:10 *325:8 0
8 *106:12 *325:8 0
9 *311:25 *325:8 0
10 *311:37 *24176:D 0.000187079
11 *324:10 *325:8 0.000107218
*RES
1 *24292:X *325:8 42.3707 
2 *325:8 *24176:D 40.0973 
*END

*D_NET *326 0.00566812
*CONN
*I *23907:B I *D sky130_fd_sc_hd__nand4_1
*I *23906:A1 I *D sky130_fd_sc_hd__a21bo_1
*I *23998:A2 I *D sky130_fd_sc_hd__o211a_1
*I *24293:X O *D sky130_fd_sc_hd__dlygate4sd3_1
*CAP
1 *23907:B 0
2 *23906:A1 0
3 *23998:A2 0
4 *24293:X 0.000181499
5 *326:46 0.000420286
6 *326:33 0.00142231
7 *326:20 6.68553e-05
8 *326:14 0.00118664
9 *326:10 0.000299262
10 *326:10 *442:23 4.79544e-05
11 *326:14 *440:23 0.000101775
12 *326:20 *367:25 1.12487e-05
13 *326:20 *440:23 0.000163352
14 *326:33 *398:48 7.76364e-06
15 *326:33 *398:63 0
16 *326:46 *23906:A2 5.50106e-05
17 *326:46 *398:63 0.000203929
18 *326:46 *442:59 0
19 *23906:B1_N *326:33 0
20 *24145:A *326:33 0
21 *24145:B *326:33 0
22 *87:10 *326:33 0.000235024
23 *89:133 *326:14 0.000395895
24 *89:133 *326:33 5.50106e-05
25 *89:139 *326:20 0.000141879
26 *107:90 *326:33 0.000187996
27 *109:8 *326:46 7.88828e-05
28 *109:12 *326:46 0
29 *130:10 *326:33 4.08537e-05
30 *130:10 *326:46 1.40958e-05
31 *194:56 *326:10 0.000139346
32 *308:78 *326:10 0.00015795
33 *308:86 *326:10 5.3304e-05
34 *308:94 *326:33 0
*RES
1 *24293:X *326:10 41.8321 
2 *326:10 *326:14 19.4329 
3 *326:14 *326:20 32.2579 
4 *326:20 *23998:A2 23 
5 *326:14 *326:33 47.8764 
6 *326:33 *23906:A1 23 
7 *326:33 *326:46 39.4871 
8 *326:46 *23907:B 23 
*END

*D_NET *327 0.00327094
*CONN
*I *24323:A I *D sky130_fd_sc_hd__buf_2
*I *23889:X O *D sky130_fd_sc_hd__a21o_1
*CAP
1 *24323:A 0
2 *23889:X 8.52469e-05
3 *327:12 0.00106962
4 *327:8 0.00115486
5 *327:12 *380:8 0.000961215
6 *30:10 *327:12 0
7 *97:29 *327:12 0
*RES
1 *23889:X *327:8 39.0979 
2 *327:8 *327:12 42.26 
3 *327:12 *24323:A 23 
*END

*D_NET *328 0.0046022
*CONN
*I *24068:A2 I *D sky130_fd_sc_hd__a32o_1
*I *24059:A I *D sky130_fd_sc_hd__xnor2_1
*I *24063:A1 I *D sky130_fd_sc_hd__o211a_1
*I *24066:A I *D sky130_fd_sc_hd__and3_1
*I *24064:A2 I *D sky130_fd_sc_hd__a31o_1
*I *24294:X O *D sky130_fd_sc_hd__dlygate4sd3_1
*CAP
1 *24068:A2 0
2 *24059:A 0
3 *24063:A1 7.53132e-05
4 *24066:A 0.000250349
5 *24064:A2 0
6 *24294:X 0
7 *328:45 0.00016385
8 *328:30 0.000326733
9 *328:28 0.000648765
10 *328:10 9.00527e-05
11 *328:4 0.000901597
12 *24063:A1 *24063:A2 3.91386e-05
13 *24063:A1 *347:48 2.72257e-05
14 *24066:A *24294:A 0.000225393
15 *24066:A *354:227 5.50206e-05
16 *328:10 *475:75 1.14452e-05
17 *328:28 *475:50 1.72202e-05
18 *328:30 *347:48 3.83519e-05
19 *328:30 *475:50 5.50106e-05
20 *328:45 *353:109 0
21 *328:45 *353:154 0
22 *24060:B *328:45 6.07611e-06
23 *24066:C *24066:A 0.000338206
24 *24066:C *328:10 3.11878e-05
25 *24068:A3 *328:28 0.000139346
26 *24068:B1 *24063:A1 0
27 *24068:B1 *328:30 3.59013e-05
28 *24068:B2 *328:45 6.32688e-05
29 *55:10 *328:28 5.67058e-05
30 *55:10 *328:30 0.000228001
31 *105:42 *328:10 0.000246748
32 *247:10 *328:45 4.42688e-05
33 *248:8 *328:45 0
34 *250:10 *328:45 0
35 *255:8 *328:28 0.000317346
36 *257:10 *328:10 0.000169674
*RES
1 *24294:X *328:4 23 
2 *328:4 *328:10 33.3143 
3 *328:10 *24064:A2 23 
4 *328:4 *24066:A 29.3593 
5 *328:4 *328:28 11.1236 
6 *328:28 *328:30 3.00357 
7 *328:30 *24063:A1 24.595 
8 *328:30 *328:45 33.6664 
9 *328:45 *24059:A 23 
10 *328:28 *24068:A2 23 
*END

*D_NET *329 0.000364995
*CONN
*I *24169:D I *D sky130_fd_sc_hd__dfxtp_1
*I *24296:X O *D sky130_fd_sc_hd__dlygate4sd3_1
*CAP
1 *24169:D 4.52037e-05
2 *24296:X 9.53785e-05
3 *329:8 0.000140582
4 *24169:CLK *24169:D 8.38304e-05
*RES
1 *24296:X *329:8 39.5536 
2 *329:8 *24169:D 38.9373 
*END

*D_NET *330 0.0010982
*CONN
*I *24081:A I *D sky130_fd_sc_hd__or3b_1
*I *23875:A I *D sky130_fd_sc_hd__inv_2
*I *24297:X O *D sky130_fd_sc_hd__dlygate4sd3_1
*CAP
1 *24081:A 0
2 *23875:A 0.000320774
3 *24297:X 3.88336e-05
4 *330:21 7.87035e-05
5 *330:6 0.000438311
6 *24078:A2 *23875:A 4.30318e-05
7 *24083:C *330:21 0
8 *24085:A2 *330:21 0
9 *262:8 *23875:A 7.53384e-06
10 *262:8 *330:6 2.4754e-05
11 *307:34 *330:21 0.000141879
12 *315:42 *23875:A 4.38068e-06
*RES
1 *24297:X *330:6 23.6214 
2 *330:6 *23875:A 27.3293 
3 *330:6 *330:21 31.9057 
4 *330:21 *24081:A 23 
*END

*D_NET *331 0.000139982
*CONN
*I *24082:A3 I *D sky130_fd_sc_hd__a311oi_1
*I *24298:X O *D sky130_fd_sc_hd__dlygate4sd3_1
*CAP
1 *24082:A3 1.49804e-05
2 *24298:X 1.49804e-05
3 *24082:A3 *368:44 5.50106e-05
4 *24082:A2 *24082:A3 5.50106e-05
*RES
1 *24298:X *24082:A3 46.6214 
*END

*D_NET *332 0.000630039
*CONN
*I *24173:D I *D sky130_fd_sc_hd__dfxtp_1
*I *24299:X O *D sky130_fd_sc_hd__dlygate4sd3_1
*CAP
1 *24173:D 0.000104796
2 *24299:X 8.37443e-05
3 *332:8 0.000188541
4 *24173:CLK *24173:D 4.5591e-05
5 *24173:CLK *332:8 4.08537e-05
6 *90:118 *332:8 0
7 *98:14 *332:8 0.000166513
*RES
1 *24299:X *332:8 40.2579 
2 *332:8 *24173:D 39.6209 
*END

*D_NET *333 0.00244113
*CONN
*I *23954:C I *D sky130_fd_sc_hd__nand3_1
*I *24109:A I *D sky130_fd_sc_hd__or2_1
*I *23959:B1 I *D sky130_fd_sc_hd__a21o_1
*I *24300:X O *D sky130_fd_sc_hd__dlygate4sd3_1
*CAP
1 *23954:C 0.00016528
2 *24109:A 0
3 *23959:B1 7.33821e-05
4 *24300:X 0
5 *333:23 0.000156588
6 *333:8 0.000364776
7 *333:4 0.000300086
8 *23954:C *24300:A 0.000110226
9 *23954:C *361:145 0.0002831
10 *23954:C *370:10 5.67058e-05
11 *23959:B1 *23959:A1 7.53384e-06
12 *23959:B1 *24110:A1 0
13 *23959:B1 *24110:C1 0
14 *333:8 *23959:A1 3.90611e-05
15 *333:8 *24300:A 1.24376e-05
16 *333:8 *367:103 0.000141954
17 *333:8 *418:34 4.05745e-05
18 *333:23 *361:126 6.07611e-06
19 *333:23 *367:103 0
20 *23966:A1 *333:23 3.0647e-05
21 *156:8 *23954:C 0.000354122
22 *156:8 *23959:B1 5.12254e-05
23 *156:8 *333:8 0.000161461
24 *156:21 *333:23 7.8128e-05
25 *310:14 *333:23 7.76364e-06
*RES
1 *24300:X *333:4 23 
2 *333:4 *333:8 3.97714 
3 *333:8 *23959:B1 24.595 
4 *333:8 *333:23 32.9621 
5 *333:23 *24109:A 23 
6 *333:4 *23954:C 29.235 
*END

*D_NET *334 0.000855284
*CONN
*I *24187:D I *D sky130_fd_sc_hd__dfxtp_1
*I *24301:X O *D sky130_fd_sc_hd__dlygate4sd3_1
*CAP
1 *24187:D 6.33725e-05
2 *24301:X 0.000323258
3 *334:10 0.00038663
4 *334:10 *355:262 0
5 *334:10 *361:32 5.70006e-05
6 *72:10 *334:10 0
7 *306:54 *334:10 2.50227e-05
8 *310:132 *334:10 0
*RES
1 *24301:X *334:10 43.4686 
2 *334:10 *24187:D 38.9373 
*END

*D_NET *335 0.00372044
*CONN
*I *23948:C I *D sky130_fd_sc_hd__and3_1
*I *23952:B1 I *D sky130_fd_sc_hd__a21oi_1
*I *24112:A I *D sky130_fd_sc_hd__or2_1
*I *24302:X O *D sky130_fd_sc_hd__dlygate4sd3_1
*CAP
1 *23948:C 0.000199901
2 *23952:B1 4.27883e-05
3 *24112:A 0.000523562
4 *24302:X 0.000394392
5 *335:27 0.00031726
6 *335:10 0.000992524
7 *23948:C *23948:B 1.11304e-05
8 *23952:B1 *343:25 0.000114074
9 *335:27 *343:25 0.000148201
10 *23955:B *24112:A 0.000144067
11 *23958:B *335:27 3.14377e-05
12 *155:8 *24112:A 2.3853e-05
13 *155:8 *335:10 0.000394994
14 *155:20 *23952:B1 0.000114092
15 *155:20 *24112:A 2.65505e-05
16 *155:20 *335:27 0.000241616
*RES
1 *24302:X *335:10 30.9336 
2 *335:10 *24112:A 31.9071 
3 *335:10 *335:27 18.3143 
4 *335:27 *23952:B1 39.5536 
5 *335:27 *23948:C 40.1336 
*END

*D_NET *336 0.000499118
*CONN
*I *24188:D I *D sky130_fd_sc_hd__dfxtp_2
*I *24303:X O *D sky130_fd_sc_hd__dlygate4sd3_1
*CAP
1 *24188:D 0.000107988
2 *24303:X 9.53488e-05
3 *336:8 0.000203337
4 *24188:CLK *24188:D 5.70419e-05
5 *74:10 *336:8 0
6 *187:20 *24188:D 3.54023e-05
7 *310:156 *336:8 0
*RES
1 *24303:X *336:8 39.5536 
2 *336:8 *24188:D 40.3666 
*END

*D_NET *337 0.00108981
*CONN
*I *24095:A1 I *D sky130_fd_sc_hd__mux2_1
*I *24304:X O *D sky130_fd_sc_hd__dlygate4sd3_1
*CAP
1 *24095:A1 0.000356369
2 *24304:X 4.50246e-05
3 *337:8 0.000401394
4 *24095:A1 *24180:D 5.92579e-05
5 *24095:A1 *406:27 5.9925e-05
6 *24095:A1 *406:31 4.06849e-05
7 *337:8 *339:8 8.62876e-05
8 *337:8 *400:135 4.08641e-05
*RES
1 *24304:X *337:8 39.2014 
2 *337:8 *24095:A1 42.9093 
*END

*D_NET *338 0.00811257
*CONN
*I *24324:A I *D sky130_fd_sc_hd__buf_2
*I *23890:X O *D sky130_fd_sc_hd__and3_1
*CAP
1 *24324:A 0.000468457
2 *23890:X 0
3 *338:8 0.00405418
4 *338:6 0.00358572
5 *338:8 *352:8 0
6 *338:8 *455:10 4.21594e-06
*RES
1 *23890:X *338:6 38 
2 *338:6 *338:8 69.8693 
3 *338:8 *24324:A 45.7679 
*END

*D_NET *339 0.000374872
*CONN
*I *24180:D I *D sky130_fd_sc_hd__dfxtp_2
*I *24305:X O *D sky130_fd_sc_hd__dlygate4sd3_1
*CAP
1 *24180:D 1.53985e-05
2 *24305:X 5.92912e-05
3 *339:8 7.46897e-05
4 *24180:D *406:27 1.86404e-05
5 *339:8 *400:135 6.7177e-06
6 *24095:A1 *24180:D 5.92579e-05
7 *312:39 *339:8 5.45887e-05
8 *337:8 *339:8 8.62876e-05
*RES
1 *24305:X *339:8 39.5536 
2 *339:8 *24180:D 38.668 
*END

*D_NET *340 0.00148392
*CONN
*I *24073:B1 I *D sky130_fd_sc_hd__a21o_1
*I *24074:A I *D sky130_fd_sc_hd__nand3_1
*I *24307:X O *D sky130_fd_sc_hd__dlygate4sd3_1
*CAP
1 *24073:B1 0.000145932
2 *24074:A 0
3 *24307:X 9.60229e-05
4 *340:14 0.000178951
5 *340:6 0.000420906
6 *340:14 *24074:B 1.14154e-05
7 *340:14 *353:134 0
8 *24073:A2 *24073:B1 4.00259e-06
9 *24284:A *24073:B1 0.000177731
10 *24284:A *340:6 0.000184415
11 *258:22 *24073:B1 9.88674e-05
12 *258:22 *340:14 0.000108672
13 *259:10 *24073:B1 5.70007e-05
14 *259:10 *340:14 0
15 *260:25 *340:14 0
*RES
1 *24307:X *340:6 25.0507 
2 *340:6 *340:14 33.1382 
3 *340:14 *24074:A 23 
4 *340:6 *24073:B1 27.4536 
*END

*D_NET *341 0.00119915
*CONN
*I *24075:C I *D sky130_fd_sc_hd__and3_1
*I *24308:X O *D sky130_fd_sc_hd__dlygate4sd3_1
*CAP
1 *24075:C 0
2 *24308:X 0.000134048
3 *341:6 0.000134048
4 *341:6 *353:134 0.000598945
5 *259:16 *341:6 0.000332109
*RES
1 *24308:X *341:6 29.6493 
2 *341:6 *24075:C 23 
*END

*D_NET *342 0.000356837
*CONN
*I *24171:D I *D sky130_fd_sc_hd__dfxtp_1
*I *24309:X O *D sky130_fd_sc_hd__dlygate4sd3_1
*CAP
1 *24171:D 0.00011407
2 *24309:X 0.00011407
3 *309:116 *24171:D 0.000128696
*RES
1 *24309:X *24171:D 48.5893 
*END

*D_NET *343 0.0169032
*CONN
*I *23948:B I *D sky130_fd_sc_hd__and3_1
*I *24225:A I *D sky130_fd_sc_hd__clkbuf_4
*I *24310:X O *D sky130_fd_sc_hd__dlygate4sd3_1
*CAP
1 *23948:B 0.000140574
2 *24225:A 0.00077575
3 *24310:X 0
4 *343:25 0.00154096
5 *343:23 0.00276125
6 *343:19 0.00272771
7 *343:4 0.00214259
8 *24225:A *24310:A 0.000142916
9 *24225:A *364:29 0.00059353
10 *24225:A *372:10 0.000187129
11 *24225:A *401:10 0.00010018
12 *343:23 *24144:B2 0
13 *343:23 *367:25 0
14 *343:23 *367:62 0
15 *343:23 *398:76 0
16 *343:23 *434:50 0.000611554
17 *343:23 *440:12 0
18 *343:23 *440:23 0.000149035
19 *343:23 *442:23 0.00119057
20 *343:25 *367:62 0
21 *343:25 *367:103 0.000138911
22 *343:25 *418:23 0.00121361
23 *343:25 *418:44 0.000793505
24 *343:25 *466:8 0.000353858
25 *23948:C *23948:B 1.11304e-05
26 *23952:B1 *343:25 0.000114074
27 *23958:B *343:25 5.65491e-05
28 *23966:A1 *343:25 0
29 *23989:B1 *24225:A 5.50049e-05
30 *24200:CLK *343:23 0
31 *24317:A *343:25 0.000207447
32 *107:110 *343:25 0
33 *129:8 *343:23 0.000162457
34 *129:19 *343:23 5.36457e-05
35 *129:49 *343:23 3.60965e-05
36 *129:49 *343:25 8.60329e-05
37 *138:8 *343:25 0
38 *144:16 *343:25 0.00021341
39 *145:8 *343:25 0
40 *292:8 *343:25 6.93553e-05
41 *310:14 *343:25 0.000126188
42 *335:27 *343:25 0.000148201
*RES
1 *24310:X *343:4 23 
2 *343:4 *24225:A 39.3436 
3 *343:4 *343:19 36.3771 
4 *343:19 *343:23 32.5732 
5 *343:23 *343:25 41.5839 
6 *343:25 *23948:B 39.5743 
*END

*D_NET *344 0.00581298
*CONN
*I *23950:A1 I *D sky130_fd_sc_hd__a21oi_1
*I *23949:A I *D sky130_fd_sc_hd__and3_1
*I *23983:A1 I *D sky130_fd_sc_hd__a211oi_1
*I *23956:A I *D sky130_fd_sc_hd__and2_1
*I *24115:A I *D sky130_fd_sc_hd__or2_1
*I *23982:A I *D sky130_fd_sc_hd__nor3_1
*I *24311:X O *D sky130_fd_sc_hd__dlygate4sd3_1
*CAP
1 *23950:A1 0
2 *23949:A 0
3 *23983:A1 3.73033e-05
4 *23956:A 0
5 *24115:A 0.000302729
6 *23982:A 0.000205181
7 *24311:X 0.000234235
8 *344:28 0.00050791
9 *344:26 0.000133554
10 *344:22 0.000662421
11 *344:8 0.000510253
12 *344:6 0.000252924
13 *23982:A *354:185 0.00010018
14 *24115:A *361:47 0
15 *24115:A *361:108 0.000223043
16 *344:6 *24311:A 7.88926e-05
17 *344:22 *356:87 4.27864e-05
18 *23949:B *344:6 3.59538e-05
19 *23949:B *344:8 2.4754e-05
20 *23950:A2 *344:8 4.2573e-05
21 *23950:A2 *344:22 5.50049e-05
22 *23983:B1 *23983:A1 1.32314e-05
23 *23983:B1 *344:26 3.99661e-05
24 *23985:A2 *344:22 0
25 *24114:B *24115:A 0.000214968
26 *150:46 *23983:A1 0
27 *150:46 *344:22 0.000436191
28 *151:23 *344:6 0.000222785
29 *151:23 *344:8 9.84851e-05
30 *151:23 *344:22 5.3304e-05
31 *157:27 *23982:A 0.000274729
32 *157:27 *24115:A 1.14452e-05
33 *158:12 *24115:A 0.000138727
34 *158:12 *344:26 1.79651e-05
35 *160:10 *23982:A 2.18506e-05
36 *160:21 *23982:A 0
37 *160:21 *24115:A 0
38 *182:10 *23982:A 0
39 *183:10 *24115:A 0
40 *185:10 *24115:A 0.000101564
41 *185:10 *344:26 9.84794e-05
42 *187:20 *344:22 0.000301719
43 *187:20 *344:26 0.000264564
44 *280:12 *344:26 0
45 *319:27 *344:6 5.3304e-05
*RES
1 *24311:X *344:6 28.3857 
2 *344:6 *344:8 1.09786 
3 *344:8 *344:22 41.7864 
4 *344:22 *344:26 3.85286 
5 *344:26 *344:28 15 
6 *344:28 *23982:A 42.4121 
7 *344:28 *24115:A 46.5136 
8 *344:26 *23956:A 23 
9 *344:22 *23983:A1 24.6157 
10 *344:8 *23949:A 23 
11 *344:6 *23950:A1 23 
*END

*D_NET *345 0.00334027
*CONN
*I *24037:A1 I *D sky130_fd_sc_hd__a21boi_2
*I *24032:A I *D sky130_fd_sc_hd__or2_1
*I *24025:A I *D sky130_fd_sc_hd__nand3_1
*I *24026:B1 I *D sky130_fd_sc_hd__a21o_1
*I *24312:X O *D sky130_fd_sc_hd__dlygate4sd3_1
*CAP
1 *24037:A1 0
2 *24032:A 0.00024438
3 *24025:A 0
4 *24026:B1 0.000229859
5 *24312:X 4.5609e-05
6 *345:45 0.000101
7 *345:25 0.00024438
8 *345:12 0.000917499
9 *345:6 0.00083425
10 *24026:B1 *354:82 9.28078e-06
11 *345:45 *447:25 6.6869e-05
12 *24027:A *24026:B1 4.96717e-05
13 *24028:A1 *24032:A 7.84283e-05
14 *24028:B1 *24032:A 0.000139352
15 *24030:A1 *24026:B1 6.01895e-05
16 *106:16 *345:12 0
17 *214:29 *24026:B1 0
18 *214:29 *345:12 0
19 *217:12 *24026:B1 7.54991e-05
20 *217:29 *24026:B1 9.5877e-05
21 *218:43 *24026:B1 0.000140055
22 *218:54 *345:12 0
23 *218:54 *345:45 0
24 *219:27 *24026:B1 0
25 *219:27 *24032:A 8.06804e-06
*RES
1 *24312:X *345:6 23.6214 
2 *345:6 *345:12 23.7207 
3 *345:12 *24026:B1 42.4121 
4 *345:12 *345:25 15 
5 *345:25 *24025:A 23 
6 *345:25 *24032:A 27.4536 
7 *345:6 *345:45 31.9057 
8 *345:45 *24037:A1 23 
*END

*D_NET *346 0.000967899
*CONN
*I *24166:D I *D sky130_fd_sc_hd__dfxtp_1
*I *24313:X O *D sky130_fd_sc_hd__dlygate4sd3_1
*CAP
1 *24166:D 0
2 *24313:X 0.000374113
3 *346:6 0.000374113
4 *346:6 *354:34 9.5877e-05
5 *24166:CLK *346:6 0.000123795
*RES
1 *24313:X *346:6 29.6545 
2 *346:6 *24166:D 23 
*END

*D_NET *347 0.00757919
*CONN
*I *24055:A I *D sky130_fd_sc_hd__or2_1
*I *24049:A I *D sky130_fd_sc_hd__xnor2_1
*I *24046:C_N I *D sky130_fd_sc_hd__or3b_1
*I *24314:X O *D sky130_fd_sc_hd__dlygate4sd3_1
*CAP
1 *24055:A 0
2 *24049:A 0.000203526
3 *24046:C_N 0
4 *24314:X 0
5 *347:48 0.00119975
6 *347:22 0.000672589
7 *347:8 0.00114118
8 *347:6 0.00146482
9 *347:8 *475:10 0.00025307
10 *347:8 *475:21 0.000398924
11 *347:22 *475:10 0.000136486
12 *347:48 *24063:A2 0.000176901
13 *347:48 *475:50 4.5051e-05
14 *24046:A *347:22 9.84851e-05
15 *24049:B *24049:A 5.50106e-05
16 *24063:A1 *347:48 2.72257e-05
17 *24064:A3 *347:8 0
18 *24064:A3 *347:48 0
19 *24068:A3 *347:48 8.48502e-06
20 *24068:B1 *347:48 0.000100861
21 *24072:A2 *347:48 0
22 *187:20 *347:22 0.000288779
23 *224:47 *347:8 0
24 *226:51 *347:22 0
25 *228:10 *347:8 0
26 *228:10 *347:48 0
27 *229:14 *347:22 0.000139352
28 *229:27 *347:8 0
29 *235:10 *347:22 3.79854e-05
30 *236:29 *347:8 0.000545275
31 *236:29 *347:48 7.48331e-05
32 *238:12 *24049:A 0.0002263
33 *244:10 *347:48 0.00010018
34 *251:12 *347:48 0
35 *255:8 *347:48 0.000145775
36 *328:30 *347:48 3.83519e-05
*RES
1 *24314:X *347:6 38 
2 *347:6 *347:8 9.65286 
3 *347:8 *347:22 27.8636 
4 *347:22 *24046:C_N 23 
5 *347:8 *24049:A 42.4329 
6 *347:6 *347:48 34.4714 
7 *347:48 *24055:A 23 
*END

*D_NET *348 0.00051963
*CONN
*I *24168:D I *D sky130_fd_sc_hd__dfxtp_1
*I *24315:X O *D sky130_fd_sc_hd__dlygate4sd3_1
*CAP
1 *24168:D 1.26271e-05
2 *24315:X 0.00023897
3 *348:8 0.000251597
4 *57:12 *348:8 0
5 *309:124 *24168:D 1.64354e-05
*RES
1 *24315:X *348:8 42.3707 
2 *348:8 *24168:D 38.1916 
*END

*D_NET *349 0.0120043
*CONN
*I *24325:A I *D sky130_fd_sc_hd__buf_2
*I *23891:X O *D sky130_fd_sc_hd__a21o_1
*CAP
1 *24325:A 0.000235746
2 *23891:X 0
3 *349:8 0.00455827
4 *349:6 0.00432253
5 *349:8 *352:8 0.00288774
6 *349:8 *380:8 0
*RES
1 *23891:X *349:6 38 
2 *349:6 *349:8 108.957 
3 *349:8 *24325:A 41.9564 
*END

*D_NET *350 7.92703e-05
*CONN
*I *24223:A I *D sky130_fd_sc_hd__buf_2
*I *24316:X O *D sky130_fd_sc_hd__dlygate4sd3_1
*CAP
1 *24223:A 1.97243e-05
2 *24316:X 1.97243e-05
3 *24223:A *362:10 7.53384e-06
4 *24080:A2 *24223:A 3.22879e-05
*RES
1 *24316:X *24223:A 46.6214 
*END

*D_NET *351 7.06952e-05
*CONN
*I *23876:A I *D sky130_fd_sc_hd__inv_2
*I *24318:X O *D sky130_fd_sc_hd__dlygate4sd3_1
*CAP
1 *23876:A 2.3833e-05
2 *24318:X 2.3833e-05
3 *92:10 *23876:A 2.30292e-05
*RES
1 *24318:X *23876:A 46.6214 
*END

*D_NET *352 0.0169335
*CONN
*I *24326:A I *D sky130_fd_sc_hd__buf_2
*I *531:DIODE I *D sky130_fd_sc_hd__diode_2
*I *23892:X O *D sky130_fd_sc_hd__and3_1
*CAP
1 *24326:A 0.000160595
2 *531:DIODE 0
3 *23892:X 0
4 *352:12 0.000369413
5 *352:8 0.00685923
6 *352:6 0.00665041
7 *352:8 *380:8 0
8 *352:8 *455:10 6.07611e-06
9 *95:99 *352:8 0
10 *338:8 *352:8 0
11 *349:8 *352:8 0.00288774
*RES
1 *23892:X *352:6 38 
2 *352:6 *352:8 153.679 
3 *352:8 *352:12 18.48 
4 *352:12 *531:DIODE 23 
5 *352:12 *24326:A 25.9 
*END

*D_NET *353 0.0280773
*CONN
*I *24104:B1 I *D sky130_fd_sc_hd__o211a_1
*I *24063:B1 I *D sky130_fd_sc_hd__o211a_1
*I *24056:C1 I *D sky130_fd_sc_hd__o211a_1
*I *24075:A I *D sky130_fd_sc_hd__and3_1
*I *24009:A I *D sky130_fd_sc_hd__inv_2
*I *24045:C1 I *D sky130_fd_sc_hd__o211a_1
*I *24124:A I *D sky130_fd_sc_hd__and3_1
*I *24101:B1 I *D sky130_fd_sc_hd__o211a_1
*I *24021:B1 I *D sky130_fd_sc_hd__o211a_1
*I *24012:B I *D sky130_fd_sc_hd__and3_1
*I *24215:X O *D sky130_fd_sc_hd__clkbuf_4
*CAP
1 *24104:B1 2.1727e-05
2 *24063:B1 0
3 *24056:C1 2.34823e-05
4 *24075:A 0
5 *24009:A 0.00018607
6 *24045:C1 0
7 *24124:A 0
8 *24101:B1 8.32556e-05
9 *24021:B1 0.000379153
10 *24012:B 0.000290582
11 *24215:X 0
12 *353:154 0.00016552
13 *353:134 0.00108047
14 *353:115 0.00143714
15 *353:111 0.000461469
16 *353:109 0.00092607
17 *353:98 0.000492972
18 *353:90 0.0012642
19 *353:86 0.00171832
20 *353:80 0.0020055
21 *353:63 0.000564365
22 *353:42 0.00107766
23 *353:38 0.00229274
24 *353:8 0.000800368
25 *353:4 0.0014498
26 *24009:A *24074:B 7.80035e-05
27 *24009:A *361:65 0.000116314
28 *24012:B *354:14 6.25829e-05
29 *24021:B1 *354:14 0.000114092
30 *24021:B1 *354:32 0
31 *24021:B1 *362:170 0
32 *24101:B1 *24101:C1 9.84794e-05
33 *24104:B1 *355:239 0
34 *353:8 *530:DIODE 2.64616e-05
35 *353:38 *357:40 0.000311554
36 *353:38 *357:42 0.000313249
37 *353:38 *357:46 0.000914623
38 *353:38 *357:99 0.000651543
39 *353:42 *355:194 5.94125e-05
40 *353:42 *355:214 0.000814301
41 *353:42 *384:19 0
42 *353:42 *384:30 0
43 *353:42 *394:10 0.000346206
44 *353:80 *23962:C 9.98995e-05
45 *353:80 *355:214 0.000622818
46 *353:80 *355:239 4.00259e-06
47 *353:80 *363:14 3.51169e-05
48 *353:80 *363:34 0.00028897
49 *353:80 *384:30 0
50 *353:86 *360:159 0
51 *353:86 *363:78 0
52 *353:86 *447:10 0.000151172
53 *353:86 *447:25 0.000189306
54 *353:86 *473:10 4.48671e-05
55 *353:98 *356:120 6.79006e-05
56 *353:109 *356:120 0
57 *353:109 *356:133 1.58805e-05
58 *353:111 *356:133 0.000357631
59 *353:134 *24074:B 0.000167452
60 *353:154 *356:133 6.61261e-05
61 *24019:B *24021:B1 0.000225265
62 *24035:B1 *353:86 0
63 *24038:B *353:86 0.000206587
64 *24039:A *353:86 5.80848e-05
65 *24043:A *353:98 0
66 *24050:A1 *353:86 9.03784e-05
67 *24057:A1 *353:98 0.00013961
68 *24060:B *353:109 0
69 *24073:A2 *24056:C1 0
70 *24104:C1 *353:80 5.67058e-05
71 *24164:CLK *24012:B 2.93845e-05
72 *53:8 *353:98 0
73 *54:10 *353:111 3.22879e-05
74 *57:6 *353:134 8.06804e-06
75 *71:8 *353:86 0.000138718
76 *90:159 *24012:B 0
77 *95:36 *24012:B 0.00030674
78 *95:36 *24021:B1 2.55642e-05
79 *105:23 *353:86 2.8241e-05
80 *171:8 *353:80 0.000171906
81 *179:16 *24101:B1 0.000222176
82 *179:16 *353:63 0.000209374
83 *192:34 *353:63 0.000169674
84 *204:10 *24012:B 8.4047e-05
85 *211:10 *24021:B1 7.90568e-05
86 *212:10 *24021:B1 1.14452e-05
87 *218:86 *353:86 0.000164291
88 *220:48 *353:98 0
89 *226:23 *353:86 0.000110373
90 *226:51 *353:86 0
91 *227:10 *353:86 0
92 *227:31 *353:86 4.68153e-05
93 *229:27 *353:86 6.07929e-05
94 *229:39 *353:90 0.000202654
95 *229:39 *353:98 0.000268074
96 *229:41 *353:98 0
97 *234:10 *353:98 6.07611e-06
98 *235:10 *353:86 5.21127e-05
99 *239:10 *353:86 0
100 *241:14 *353:90 0.000180218
101 *241:14 *353:109 6.12496e-06
102 *242:8 *353:109 0.000300108
103 *250:10 *353:154 6.07611e-06
104 *258:10 *353:111 0.000132057
105 *258:10 *353:115 0.000156058
106 *258:10 *353:154 2.32101e-05
107 *258:22 *353:115 4.96717e-05
108 *259:10 *353:134 0.000293785
109 *259:16 *353:134 0.000161459
110 *308:168 *353:63 0.000169674
111 *309:149 *353:86 5.65617e-05
112 *321:25 *353:86 0
113 *328:45 *353:109 0
114 *328:45 *353:154 0
115 *340:14 *353:134 0
116 *341:6 *353:134 0.000598945
*RES
1 *24215:X *353:4 23 
2 *353:4 *353:8 17.0507 
3 *353:8 *24012:B 44.815 
4 *353:8 *24021:B1 46.8657 
5 *353:4 *353:38 41.3486 
6 *353:38 *353:42 26.7657 
7 *353:42 *24101:B1 26.0605 
8 *353:42 *353:63 41.4757 
9 *353:63 *24124:A 23 
10 *353:38 *353:80 31.0121 
11 *353:80 *353:86 45.6157 
12 *353:86 *353:90 19.4329 
13 *353:90 *353:98 38.12 
14 *353:98 *24045:C1 23 
15 *353:90 *353:109 39.6529 
16 *353:109 *353:111 6.815 
17 *353:111 *353:115 18.9564 
18 *353:115 *24009:A 41.5836 
19 *353:115 *353:134 33.2286 
20 *353:134 *24075:A 23 
21 *353:111 *24056:C1 23.4971 
22 *353:109 *353:154 33.5836 
23 *353:154 *24063:B1 23 
24 *353:80 *24104:B1 23.4971 
*END

*D_NET *354 0.0346812
*CONN
*I *518:DIODE I *D sky130_fd_sc_hd__diode_2
*I *503:DIODE I *D sky130_fd_sc_hd__diode_2
*I *24071:B1 I *D sky130_fd_sc_hd__o211a_1
*I *522:DIODE I *D sky130_fd_sc_hd__diode_2
*I *24116:C1 I *D sky130_fd_sc_hd__o211a_1
*I *523:DIODE I *D sky130_fd_sc_hd__diode_2
*I *24119:C1 I *D sky130_fd_sc_hd__o211a_1
*I *24113:C1 I *D sky130_fd_sc_hd__o211a_1
*I *520:DIODE I *D sky130_fd_sc_hd__diode_2
*I *24110:C1 I *D sky130_fd_sc_hd__o211a_1
*I *519:DIODE I *D sky130_fd_sc_hd__diode_2
*I *24127:B1 I *D sky130_fd_sc_hd__o211a_1
*I *525:DIODE I *D sky130_fd_sc_hd__diode_2
*I *24107:B1 I *D sky130_fd_sc_hd__o211a_1
*I *24033:C1 I *D sky130_fd_sc_hd__o211a_1
*I *502:DIODE I *D sky130_fd_sc_hd__diode_2
*I *524:DIODE I *D sky130_fd_sc_hd__diode_2
*I *24121:B I *D sky130_fd_sc_hd__and3b_1
*I *24215:A I *D sky130_fd_sc_hd__clkbuf_4
*I *530:DIODE I *D sky130_fd_sc_hd__diode_2
*I *24216:X O *D sky130_fd_sc_hd__clkbuf_4
*CAP
1 *518:DIODE 1.58372e-05
2 *503:DIODE 0.000258883
3 *24071:B1 0
4 *522:DIODE 4.7252e-05
5 *24116:C1 0
6 *523:DIODE 0
7 *24119:C1 0.00032063
8 *24113:C1 0
9 *520:DIODE 0.000267557
10 *24110:C1 0.000255387
11 *519:DIODE 0
12 *24127:B1 0
13 *525:DIODE 8.83683e-05
14 *24107:B1 1.15301e-05
15 *24033:C1 0
16 *502:DIODE 0
17 *524:DIODE 0.000190892
18 *24121:B 0.000283054
19 *24215:A 0
20 *530:DIODE 7.5991e-05
21 *24216:X 0.000135289
22 *354:231 0.000342478
23 *354:227 0.0016816
24 *354:209 4.7252e-05
25 *354:207 0.00169897
26 *354:189 0.000976523
27 *354:185 0.00155835
28 *354:170 0.000133874
29 *354:155 0.000567785
30 *354:153 0.00148945
31 *354:127 0.000255387
32 *354:109 0.00128536
33 *354:105 0.00141218
34 *354:101 0.0013841
35 *354:90 0.000850634
36 *354:82 0.00140254
37 *354:65 0.00145911
38 *354:40 0.000993197
39 *354:34 0.0012166
40 *354:32 0.00114502
41 *354:14 0.000343985
42 *354:6 0.00111516
43 *503:DIODE *24071:A1 0
44 *520:DIODE *356:41 7.15126e-05
45 *525:DIODE *359:53 1.41077e-05
46 *24107:B1 *360:159 3.91386e-05
47 *24110:C1 *24110:A1 6.9805e-05
48 *24110:C1 *355:258 7.24484e-05
49 *354:32 *362:170 0
50 *354:32 *438:20 0.000221959
51 *354:40 *356:14 1.84226e-05
52 *354:40 *360:55 0.000344112
53 *354:65 *356:14 9.58714e-05
54 *354:90 *360:159 0.000165657
55 *354:90 *363:78 0
56 *354:90 *388:14 0
57 *354:101 *360:159 3.22879e-05
58 *354:101 *361:32 0.000499607
59 *354:105 *355:258 0
60 *354:109 *359:59 1.01436e-05
61 *354:109 *418:12 0
62 *354:109 *419:8 0
63 *354:109 *464:10 0
64 *354:153 *355:262 6.25068e-05
65 *354:153 *361:32 3.83498e-05
66 *354:153 *361:36 0.000675708
67 *354:153 *361:47 0.000114074
68 *354:155 *356:41 8.11489e-05
69 *354:185 *356:41 9.58714e-05
70 *354:185 *356:83 0.000315857
71 *354:227 *24294:A 0.000190653
72 *354:231 *24071:A1 0
73 *23959:B1 *24110:C1 0
74 *23965:C *354:153 1.01436e-05
75 *23980:A1 *354:105 0
76 *23980:A1 *354:109 0
77 *23982:A *354:185 0.00010018
78 *24012:B *354:14 6.25829e-05
79 *24019:B *354:32 0
80 *24021:B1 *354:14 0.000114092
81 *24021:B1 *354:32 0
82 *24026:B1 *354:82 9.28078e-06
83 *24027:A *354:65 0.000181125
84 *24027:A *354:82 7.27182e-05
85 *24030:A1 *354:82 4.79458e-06
86 *24031:B *354:40 0.000714321
87 *24043:A *24121:B 1.57571e-05
88 *24043:B *524:DIODE 0.000148698
89 *24043:B *24121:B 6.17437e-06
90 *24066:A *354:227 5.50206e-05
91 *24066:C *354:227 0.000296427
92 *24110:B1 *24110:C1 5.50106e-05
93 *24114:B *354:185 0.000222193
94 *24121:A_N *24121:B 0.00010412
95 *24188:CLK *354:170 5.3304e-05
96 *24301:A *354:153 7.59794e-05
97 *24313:A *354:34 4.27248e-05
98 *24313:A *354:65 4.96717e-05
99 *51:10 *354:32 0.000141879
100 *56:10 *503:DIODE 0
101 *72:10 *354:101 1.03836e-05
102 *73:8 *354:105 0.000144904
103 *75:8 *354:227 0
104 *77:16 *24121:B 2.95866e-05
105 *89:159 *354:109 0
106 *90:159 *354:14 0
107 *90:159 *354:32 0.00149726
108 *95:36 *530:DIODE 3.7122e-06
109 *105:42 *503:DIODE 0
110 *150:31 *354:185 0
111 *157:8 *354:185 0
112 *157:27 *354:185 7.63552e-05
113 *160:10 *354:185 6.33627e-05
114 *164:38 *354:109 0
115 *166:10 *354:109 0
116 *168:8 *354:109 0
117 *169:10 *354:105 0.000265339
118 *169:10 *354:109 0.000114083
119 *174:8 *354:109 0
120 *181:12 *354:109 1.12487e-05
121 *182:10 *354:153 0.000834137
122 *184:8 *354:185 0.000135547
123 *185:10 *354:185 0.000125904
124 *187:22 *24121:B 8.39585e-06
125 *203:8 *354:6 8.91468e-07
126 *210:29 *354:34 1.56673e-05
127 *210:29 *354:65 9.24795e-06
128 *217:12 *354:82 1.94693e-05
129 *218:43 *354:82 3.33993e-05
130 *219:27 *354:82 6.12496e-06
131 *220:18 *354:40 0.000167708
132 *220:31 *354:40 0.000152563
133 *256:10 *354:231 8.4047e-05
134 *257:10 *354:231 6.58373e-05
135 *277:12 *354:101 0.00012986
136 *280:12 *354:170 5.3304e-05
137 *281:8 *354:170 0.000299196
138 *283:8 *354:185 1.14452e-05
139 *283:8 *354:207 0.000155068
140 *290:8 *525:DIODE 9.7129e-05
141 *306:54 *354:109 0.000113266
142 *310:47 *354:109 8.51432e-05
143 *310:143 *354:170 0.000246757
144 *310:156 *354:170 5.01986e-05
145 *310:177 *522:DIODE 5.50106e-05
146 *310:177 *354:227 0.000169683
147 *320:10 *522:DIODE 0.00014196
148 *346:6 *354:34 9.5877e-05
149 *353:8 *530:DIODE 2.64616e-05
*RES
1 *24216:X *354:6 24.5743 
2 *354:6 *354:14 34.3086 
3 *354:14 *530:DIODE 24.0979 
4 *354:14 *24215:A 23 
5 *354:6 *354:32 49.865 
6 *354:32 *354:34 5.86214 
7 *354:34 *354:40 44.2307 
8 *354:40 *24121:B 26.9564 
9 *354:40 *524:DIODE 26.0036 
10 *354:34 *502:DIODE 23 
11 *354:34 *354:65 5.42714 
12 *354:65 *24033:C1 23 
13 *354:65 *354:82 36.0426 
14 *354:82 *354:90 18.2211 
15 *354:90 *24107:B1 23.4971 
16 *354:90 *354:101 13.9821 
17 *354:101 *354:105 20.4271 
18 *354:105 *354:109 37.33 
19 *354:109 *525:DIODE 25.2164 
20 *354:109 *24127:B1 23 
21 *354:105 *354:127 15 
22 *354:127 *519:DIODE 23 
23 *354:127 *24110:C1 27.93 
24 *354:101 *354:153 45.1836 
25 *354:153 *354:155 2.05071 
26 *354:155 *520:DIODE 26.48 
27 *354:155 *354:170 34.64 
28 *354:170 *24113:C1 23 
29 *354:153 *354:185 33.3736 
30 *354:185 *354:189 23.7207 
31 *354:189 *24119:C1 28.7793 
32 *354:189 *523:DIODE 23 
33 *354:185 *354:207 2.25786 
34 *354:207 *354:209 15 
35 *354:209 *24116:C1 23 
36 *354:209 *522:DIODE 24.5743 
37 *354:207 *354:227 39.7329 
38 *354:227 *354:231 16.9057 
39 *354:231 *24071:B1 38 
40 *354:231 *503:DIODE 41.8321 
41 *354:82 *518:DIODE 38.3211 
*END

*D_NET *355 0.0363482
*CONN
*I *24116:A1 I *D sky130_fd_sc_hd__o211a_1
*I *521:DIODE I *D sky130_fd_sc_hd__diode_2
*I *517:DIODE I *D sky130_fd_sc_hd__diode_2
*I *24103:B1 I *D sky130_fd_sc_hd__a21o_1
*I *516:DIODE I *D sky130_fd_sc_hd__diode_2
*I *24101:A1 I *D sky130_fd_sc_hd__o211a_1
*I *498:DIODE I *D sky130_fd_sc_hd__diode_2
*I *24136:B I *D sky130_fd_sc_hd__nand2_1
*I *529:DIODE I *D sky130_fd_sc_hd__diode_2
*I *24132:B1 I *D sky130_fd_sc_hd__a21o_1
*I *24137:A1 I *D sky130_fd_sc_hd__o211a_1
*I *527:DIODE I *D sky130_fd_sc_hd__diode_2
*I *24129:B1 I *D sky130_fd_sc_hd__a21o_1
*I *526:DIODE I *D sky130_fd_sc_hd__diode_2
*I *528:DIODE I *D sky130_fd_sc_hd__diode_2
*I *24000:B1 I *D sky130_fd_sc_hd__a21oi_1
*I *499:DIODE I *D sky130_fd_sc_hd__diode_2
*I *23993:A I *D sky130_fd_sc_hd__nor2_1
*I *23904:B I *D sky130_fd_sc_hd__nor2_2
*I *494:DIODE I *D sky130_fd_sc_hd__diode_2
*I *24217:X O *D sky130_fd_sc_hd__clkbuf_4
*CAP
1 *24116:A1 0
2 *521:DIODE 3.27344e-05
3 *517:DIODE 8.81957e-05
4 *24103:B1 0
5 *516:DIODE 0
6 *24101:A1 0.000304449
7 *498:DIODE 0
8 *24136:B 0
9 *529:DIODE 0.000113347
10 *24132:B1 9.49502e-05
11 *24137:A1 0.00018348
12 *527:DIODE 0
13 *24129:B1 9.71102e-05
14 *526:DIODE 0
15 *528:DIODE 0
16 *24000:B1 7.63915e-05
17 *499:DIODE 0.000155175
18 *23993:A 1.08631e-05
19 *23904:B 0
20 *494:DIODE 0.000223095
21 *24217:X 0
22 *355:279 0.000298564
23 *355:262 0.00107458
24 *355:258 0.00175624
25 *355:239 0.00167061
26 *355:214 0.00157708
27 *355:196 0.000304449
28 *355:194 0.00132048
29 *355:148 0.000207664
30 *355:144 0.000319053
31 *355:138 0.000470478
32 *355:122 0.000675847
33 *355:118 0.00131409
34 *355:114 0.000698811
35 *355:101 0.0014973
36 *355:67 0.00077881
37 *355:63 0.00257262
38 *355:55 0.000817615
39 *355:51 0.000553334
40 *355:40 0.000318665
41 *355:14 0.00121334
42 *355:4 0.00122644
43 *494:DIODE *368:80 0
44 *517:DIODE *361:23 9.41704e-05
45 *521:DIODE *361:57 5.3304e-05
46 *23993:A *24122:A3 5.50106e-05
47 *23993:A *439:25 5.67058e-05
48 *24000:B1 *364:37 2.3191e-05
49 *24137:A1 *390:36 0
50 *355:14 *23898:A 0.00026808
51 *355:14 *365:27 0.000351513
52 *355:14 *368:91 0
53 *355:14 *368:110 0
54 *355:14 *427:23 0.000230756
55 *355:14 *427:30 1.14154e-05
56 *355:40 *364:139 0
57 *355:40 *365:27 5.3304e-05
58 *355:40 *439:10 0.000165049
59 *355:40 *439:25 0.000165593
60 *355:51 *364:139 2.29192e-05
61 *355:55 *406:64 0.000224605
62 *355:63 *23940:A 0.000466897
63 *355:63 *23940:C 2.81041e-05
64 *355:63 *364:139 6.6869e-05
65 *355:63 *365:38 2.35393e-05
66 *355:63 *365:46 8.62783e-05
67 *355:63 *439:25 0.000269994
68 *355:67 *23999:A 4.23714e-05
69 *355:101 *23940:B 0.000602878
70 *355:101 *23940:C 7.62945e-05
71 *355:101 *442:27 3.17634e-05
72 *355:101 *442:44 0.000129226
73 *355:101 *442:59 2.72257e-05
74 *355:118 *390:10 0
75 *355:118 *390:19 0
76 *355:118 *390:36 0
77 *355:118 *396:8 0
78 *355:194 *364:139 7.92931e-05
79 *355:194 *394:10 1.12487e-05
80 *355:194 *444:8 0
81 *355:194 *463:10 1.86869e-05
82 *355:214 *363:34 0
83 *355:214 *364:139 0
84 *355:214 *463:10 2.5415e-05
85 *355:239 *388:14 7.80251e-05
86 *355:258 *361:23 0.000171296
87 *355:262 *361:36 0.000675708
88 *355:262 *361:47 0.00097571
89 *355:279 *361:57 1.21972e-05
90 *355:279 *361:96 2.63049e-05
91 *23942:A *355:118 0
92 *23965:C *355:258 1.27508e-05
93 *23965:C *355:262 3.62219e-05
94 *23974:B *355:239 5.86907e-05
95 *23979:B1 *355:239 7.7498e-05
96 *23980:A1 *355:258 0.000191166
97 *24103:A2 *355:239 0.000107785
98 *24104:B1 *355:239 0
99 *24110:C1 *355:258 7.24484e-05
100 *24114:B *355:279 0.000230604
101 *24128:A1 *355:118 0
102 *24128:A1 *355:122 5.41288e-05
103 *24128:A1 *355:138 0
104 *24131:A2 *355:138 0
105 *24143:B *355:101 0.000696795
106 *24143:C *355:101 4.78907e-05
107 *24255:A *24000:B1 7.05498e-05
108 *44:8 *355:40 0.000319197
109 *73:8 *355:258 0.000106619
110 *73:8 *355:262 3.81554e-05
111 *89:80 *499:DIODE 0
112 *89:80 *355:67 0
113 *94:26 *355:101 0
114 *94:26 *355:114 0
115 *99:90 *355:194 0
116 *105:42 *355:239 5.94125e-05
117 *105:59 *355:67 0
118 *106:29 *355:40 0
119 *106:29 *355:51 0
120 *107:14 *494:DIODE 0.000114083
121 *107:25 *355:14 0.0001493
122 *107:59 *355:101 0.000151709
123 *110:23 *355:118 0
124 *118:34 *355:114 5.41385e-05
125 *126:10 *355:118 0
126 *127:10 *355:101 0.0002263
127 *134:18 *355:118 0
128 *134:18 *355:138 0
129 *144:16 *24129:B1 9.84851e-05
130 *144:16 *355:122 0.000397596
131 *145:17 *355:122 0.000145052
132 *145:23 *529:DIODE 0
133 *145:23 *355:148 2.8241e-05
134 *164:12 *355:214 0
135 *171:8 *355:214 0.000169674
136 *172:8 *355:214 0
137 *176:8 *355:239 0
138 *179:16 *24101:A1 0.000377497
139 *179:23 *355:214 0
140 *179:36 *355:214 0
141 *181:8 *355:239 5.67058e-05
142 *183:10 *355:262 1.12487e-05
143 *194:37 *24000:B1 0.000183733
144 *194:56 *24000:B1 9.84851e-05
145 *195:10 *355:67 0.00019176
146 *201:27 *529:DIODE 9.98995e-05
147 *201:27 *24137:A1 0
148 *201:51 *24137:A1 9.13317e-06
149 *282:10 *355:279 0.000308476
150 *294:8 *24137:A1 0.000297959
151 *294:8 *355:148 1.14452e-05
152 *297:12 *355:118 1.27321e-05
153 *297:26 *24137:A1 0.000235601
154 *310:132 *355:262 0.000139647
155 *310:143 *355:262 0.000616956
156 *310:156 *355:262 0.000672529
157 *310:156 *355:279 0
158 *311:43 *494:DIODE 0
159 *311:43 *355:14 0
160 *334:10 *355:262 0
161 *353:42 *355:194 5.94125e-05
162 *353:42 *355:214 0.000814301
163 *353:80 *355:214 0.000622818
164 *353:80 *355:239 4.00259e-06
165 *354:105 *355:258 0
166 *354:153 *355:262 6.25068e-05
*RES
1 *24217:X *355:4 23 
2 *355:4 *355:14 33.6636 
3 *355:14 *494:DIODE 41.48 
4 *355:14 *23904:B 38 
5 *355:4 *355:40 21.3179 
6 *355:40 *23993:A 38.6214 
7 *355:40 *355:51 1.20143 
8 *355:51 *355:55 17.5271 
9 *355:55 *355:63 40.6264 
10 *355:63 *355:67 26.0614 
11 *355:67 *499:DIODE 40.175 
12 *355:67 *24000:B1 41.0036 
13 *355:63 *355:101 46.32 
14 *355:101 *528:DIODE 38 
15 *355:101 *355:114 17.2993 
16 *355:114 *355:118 25.7093 
17 *355:118 *355:122 26.5793 
18 *355:122 *526:DIODE 23 
19 *355:122 *24129:B1 25.4236 
20 *355:118 *355:138 2.61 
21 *355:138 *355:144 17.9 
22 *355:144 *355:148 16.2014 
23 *355:148 *527:DIODE 38 
24 *355:148 *24137:A1 43.3443 
25 *355:144 *24132:B1 24.5743 
26 *355:138 *529:DIODE 40.9621 
27 *355:114 *24136:B 23 
28 *355:55 *498:DIODE 23 
29 *355:51 *355:194 5.77929 
30 *355:194 *355:196 15 
31 *355:196 *24101:A1 28.1579 
32 *355:196 *516:DIODE 23 
33 *355:194 *355:214 39.795 
34 *355:214 *24103:B1 23 
35 *355:214 *355:239 41.5793 
36 *355:239 *517:DIODE 24.0979 
37 *355:239 *355:258 33.0629 
38 *355:258 *355:262 39.4429 
39 *355:262 *521:DIODE 23.6214 
40 *355:262 *355:279 37.4157 
41 *355:279 *24116:A1 23 
*END

*D_NET *356 0.0253756
*CONN
*I *24062:B1 I *D sky130_fd_sc_hd__a21o_1
*I *24056:A1 I *D sky130_fd_sc_hd__o211a_1
*I *24045:A1 I *D sky130_fd_sc_hd__o211a_1
*I *24113:A1 I *D sky130_fd_sc_hd__o211a_1
*I *24119:A1 I *D sky130_fd_sc_hd__o211a_1
*I *24141:A1 I *D sky130_fd_sc_hd__o211a_1
*I *24110:A1 I *D sky130_fd_sc_hd__o211a_1
*I *24033:A1 I *D sky130_fd_sc_hd__o211a_1
*I *24218:X O *D sky130_fd_sc_hd__buf_2
*CAP
1 *24062:B1 0
2 *24056:A1 0
3 *24045:A1 0
4 *24113:A1 0.000150102
5 *24119:A1 0
6 *24141:A1 0
7 *24110:A1 0.00022363
8 *24033:A1 0
9 *24218:X 0
10 *356:133 0.00032386
11 *356:120 0.00103962
12 *356:105 0.00111291
13 *356:87 0.000574897
14 *356:83 0.00156881
15 *356:72 0.00114004
16 *356:43 0.00183535
17 *356:41 0.00176885
18 *356:33 0.000558638
19 *356:29 0.00282951
20 *356:25 0.00329406
21 *356:14 0.000461258
22 *356:4 0.00063393
23 *356:14 *360:55 0.000142276
24 *356:14 *360:68 0.000247668
25 *356:25 *360:68 2.96909e-05
26 *356:43 *445:25 3.39231e-05
27 *356:72 *24203:D 1.64354e-05
28 *356:72 *361:145 0.000434153
29 *356:72 *367:75 0.000513881
30 *356:72 *367:81 0.000209878
31 *356:72 *462:10 2.72257e-05
32 *356:87 *468:8 0
33 *356:87 *469:8 0.000109172
34 *356:105 *360:68 4.16764e-05
35 *520:DIODE *356:41 7.15126e-05
36 *23955:B *356:43 0
37 *23958:A_N *356:83 0.000117759
38 *23959:B1 *24110:A1 0
39 *23965:B *24110:A1 0.000127272
40 *23965:B *356:43 0.000292865
41 *23965:C *24110:A1 2.95125e-05
42 *23965:C *356:43 2.24048e-05
43 *23966:A2 *24110:A1 3.92407e-05
44 *23980:B1_N *356:72 5.3304e-05
45 *23982:B *356:83 0.000226295
46 *23985:A2 *356:87 0
47 *24028:B1 *356:14 6.03405e-05
48 *24033:A2 *356:14 1.06734e-05
49 *24033:A2 *356:25 0.000139647
50 *24040:B *356:120 0.000119467
51 *24042:B *356:120 0
52 *24110:B1 *24110:A1 5.3304e-05
53 *24110:C1 *24110:A1 6.9805e-05
54 *24117:B *356:87 0
55 *53:8 *356:120 0
56 *54:10 *356:133 0
57 *152:8 *356:87 0
58 *153:16 *356:87 0
59 *156:32 *356:43 0
60 *157:27 *356:83 1.22822e-05
61 *160:10 *356:41 6.17437e-06
62 *182:8 *356:72 6.17437e-06
63 *182:10 *356:41 5.01986e-05
64 *182:10 *356:43 0.000956189
65 *210:29 *356:14 0.000106288
66 *220:18 *356:14 0.000148201
67 *220:31 *356:105 0
68 *220:48 *356:105 0
69 *229:41 *356:120 0
70 *232:8 *356:120 0
71 *233:10 *356:105 0.000138727
72 *234:10 *356:105 9.94908e-05
73 *242:8 *356:120 0
74 *243:10 *356:120 0.000351626
75 *244:10 *356:133 0
76 *250:10 *356:133 0.000138718
77 *258:10 *356:133 0.000359332
78 *279:10 *24110:A1 0.000114074
79 *279:10 *356:72 8.73233e-05
80 *281:8 *24113:A1 0.000122407
81 *281:8 *356:33 6.4393e-05
82 *284:10 *356:87 0.000218952
83 *299:8 *356:72 3.08966e-05
84 *306:73 *356:29 0.000161444
85 *310:14 *356:72 4.79641e-05
86 *310:20 *356:72 7.59642e-05
87 *310:74 *356:83 0.000100733
88 *310:74 *356:87 0
89 *319:14 *356:87 6.57448e-05
90 *344:22 *356:87 4.27864e-05
91 *353:98 *356:120 6.79006e-05
92 *353:109 *356:120 0
93 *353:109 *356:133 1.58805e-05
94 *353:111 *356:133 0.000357631
95 *353:154 *356:133 6.61261e-05
96 *354:40 *356:14 1.84226e-05
97 *354:65 *356:14 9.58714e-05
98 *354:155 *356:41 8.11489e-05
99 *354:185 *356:41 9.58714e-05
100 *354:185 *356:83 0.000315857
*RES
1 *24218:X *356:4 23 
2 *356:4 *356:14 39.5079 
3 *356:14 *24033:A1 23 
4 *356:4 *356:25 18.5836 
5 *356:25 *356:29 49.9243 
6 *356:29 *356:33 16.9057 
7 *356:33 *356:41 35.2821 
8 *356:41 *356:43 13.5264 
9 *356:43 *24110:A1 43.3029 
10 *356:43 *356:72 39.07 
11 *356:72 *24141:A1 23 
12 *356:41 *356:83 44.9143 
13 *356:83 *356:87 27.1179 
14 *356:87 *24119:A1 23 
15 *356:33 *24113:A1 41.3143 
16 *356:25 *356:105 22.54 
17 *356:105 *24045:A1 23 
18 *356:105 *356:120 44.5621 
19 *356:120 *24056:A1 23 
20 *356:120 *356:133 39.7357 
21 *356:133 *24062:B1 23 
*END

*D_NET *357 0.0214643
*CONN
*I *24133:A2 I *D sky130_fd_sc_hd__o211a_1
*I *24130:A2 I *D sky130_fd_sc_hd__o211a_1
*I *24004:B1 I *D sky130_fd_sc_hd__o211a_1
*I *24097:B1 I *D sky130_fd_sc_hd__o21a_1
*I *24093:B1 I *D sky130_fd_sc_hd__o21ai_1
*I *24021:A2 I *D sky130_fd_sc_hd__o211a_1
*I *24011:A I *D sky130_fd_sc_hd__nand2_1
*I *24005:A3 I *D sky130_fd_sc_hd__a31o_1
*I *24122:A3 I *D sky130_fd_sc_hd__a31o_1
*I *24002:B1 I *D sky130_fd_sc_hd__o211a_1
*I *24219:X O *D sky130_fd_sc_hd__buf_2
*CAP
1 *24133:A2 0
2 *24130:A2 2.0995e-05
3 *24004:B1 1.74641e-05
4 *24097:B1 0
5 *24093:B1 0
6 *24021:A2 0
7 *24011:A 0.000204009
8 *24005:A3 0.00015873
9 *24122:A3 0.000308507
10 *24002:B1 7.53693e-05
11 *24219:X 0
12 *357:131 0.000384701
13 *357:116 0.000835726
14 *357:99 0.00120747
15 *357:92 0.000141851
16 *357:76 0.000527145
17 *357:48 0.000507703
18 *357:46 0.000944355
19 *357:42 0.000326007
20 *357:40 0.000266039
21 *357:38 0.000973864
22 *357:27 0.000690442
23 *357:10 0.000629955
24 *357:6 0.000316111
25 *24002:B1 *24002:A2 5.23699e-05
26 *24005:A3 *24005:B1 0
27 *24005:A3 *409:8 4.85126e-05
28 *24005:A3 *446:14 0.000350687
29 *24005:A3 *471:10 0.000111852
30 *24122:A3 *23993:B 5.50049e-05
31 *24122:A3 *24122:A2 0.000100069
32 *24122:A3 *400:127 5.50049e-05
33 *24122:A3 *406:8 5.3304e-05
34 *24122:A3 *406:64 0.00089281
35 *24122:A3 *439:25 0.000146199
36 *357:10 *365:59 0
37 *357:10 *385:10 0.000171906
38 *357:10 *444:19 0
39 *357:27 *24002:A2 0.000126114
40 *357:27 *400:127 0.000244507
41 *357:27 *444:8 4.58924e-05
42 *357:27 *444:19 9.15204e-05
43 *357:38 *365:59 0
44 *357:46 *24093:A1 5.50106e-05
45 *357:46 *446:29 5.3304e-05
46 *357:46 *446:42 9.41704e-05
47 *357:48 *24005:B1 0
48 *357:48 *24010:C 0
49 *357:48 *409:8 1.99391e-05
50 *357:48 *471:10 2.68751e-05
51 *357:76 *24010:C 0
52 *357:76 *24021:A1 0.000264559
53 *357:76 *24165:D 0
54 *357:76 *365:97 0
55 *357:92 *411:38 4.21594e-06
56 *357:116 *418:12 0.000333971
57 *357:116 *418:23 0.000505449
58 *357:131 *24130:A1 0.000227208
59 *23993:A *24122:A3 5.50106e-05
60 *24002:C1 *24002:B1 2.02517e-05
61 *24004:C1 *357:99 0.000185434
62 *24011:B *24011:A 4.67488e-05
63 *24011:B *357:48 0.000199701
64 *24011:B *357:76 0.000263098
65 *24018:C_N *357:76 0.000223043
66 *24093:A2 *357:40 8.52481e-05
67 *24093:A2 *357:42 0.000301719
68 *24093:A2 *357:46 0.00010018
69 *24097:A2 *357:92 6.68793e-05
70 *24130:B1 *24130:A2 1.14154e-05
71 *24130:C1 *357:116 5.50106e-05
72 *24165:CLK *357:76 0
73 *24181:CLK *357:92 0
74 *24257:A *357:46 0.000140927
75 *24267:A *357:116 5.67058e-05
76 *65:10 *357:10 7.03317e-05
77 *70:10 *357:10 0.000139647
78 *80:10 *357:131 0.000325451
79 *89:39 *357:10 0
80 *89:39 *357:38 0
81 *89:61 *24002:B1 9.8971e-06
82 *90:159 *24005:A3 5.3365e-05
83 *99:90 *24122:A3 0.00013223
84 *105:10 *357:10 0.000108569
85 *105:10 *357:27 0.000694002
86 *201:14 *357:40 0.000119313
87 *201:14 *357:46 0.000129
88 *201:14 *357:99 0.00093494
89 *201:14 *357:116 0.00117446
90 *201:27 *357:116 3.22879e-05
91 *201:27 *357:131 0.000675193
92 *203:23 *357:76 0.000139647
93 *204:10 *24011:A 5.67058e-05
94 *310:30 *357:131 0
95 *353:38 *357:40 0.000311554
96 *353:38 *357:42 0.000313249
97 *353:38 *357:46 0.000914623
98 *353:38 *357:99 0.000651543
*RES
1 *24219:X *357:6 38 
2 *357:6 *357:10 20.7793 
3 *357:10 *24002:B1 24.4707 
4 *357:10 *357:27 40.875 
5 *357:27 *24122:A3 33.6264 
6 *357:6 *357:38 17.2579 
7 *357:38 *357:40 3.48 
8 *357:40 *357:42 3.48 
9 *357:42 *357:46 25.15 
10 *357:46 *357:48 3.66643 
11 *357:48 *24005:A3 43.075 
12 *357:48 *24011:A 41.3764 
13 *357:46 *357:76 27.2214 
14 *357:76 *24021:A2 23 
15 *357:42 *24093:B1 23 
16 *357:40 *357:92 32.9621 
17 *357:92 *24097:B1 23 
18 *357:38 *357:99 21.1079 
19 *357:99 *24004:B1 23.4971 
20 *357:99 *357:116 18.5807 
21 *357:116 *24130:A2 23.4971 
22 *357:116 *357:131 43.195 
23 *357:131 *24133:A2 23 
*END

*D_NET *358 0.0100885
*CONN
*I *24099:B I *D sky130_fd_sc_hd__and2_1
*I *24079:A1 I *D sky130_fd_sc_hd__a21oi_1
*I *24320:X O *D sky130_fd_sc_hd__buf_1
*CAP
1 *24099:B 3.50025e-05
2 *24079:A1 0.00027243
3 *24320:X 0.000675095
4 *358:10 0.00424942
5 *358:8 0.00461708
6 *24183:CLK *24099:B 0
7 *24183:CLK *358:10 0
8 *69:8 *358:10 5.21127e-05
9 *90:14 *24079:A1 0.00010776
10 *90:22 *24099:B 3.3123e-05
11 *90:22 *358:10 3.83778e-05
12 *263:12 *24079:A1 8.08139e-06
*RES
1 *24320:X *358:8 46.7207 
2 *358:8 *358:10 77.2643 
3 *358:10 *24079:A1 41.9564 
4 *358:10 *24099:B 38.8493 
*END

*D_NET *359 0.00963174
*CONN
*I *24126:A I *D sky130_fd_sc_hd__nand2_1
*I *24127:A2 I *D sky130_fd_sc_hd__o211a_1
*I *24123:A I *D sky130_fd_sc_hd__nand2_1
*I *23998:B1 I *D sky130_fd_sc_hd__o211a_1
*I *23996:B1 I *D sky130_fd_sc_hd__o211a_1
*I *24220:X O *D sky130_fd_sc_hd__dlymetal6s2s_1
*CAP
1 *24126:A 0.000258213
2 *24127:A2 0
3 *24123:A 0.000167049
4 *23998:B1 0
5 *23996:B1 0.000555777
6 *24220:X 0
7 *359:59 3.49999e-05
8 *359:53 0.000527344
9 *359:36 0.00163551
10 *359:29 0.000935689
11 *359:8 0.00155356
12 *359:6 0.00129642
13 *23996:B1 *23996:A2 0.000204267
14 *359:36 *23936:B2 0
15 *359:36 *23940:B 0
16 *359:53 *379:12 0
17 *359:59 *379:12 6.16531e-05
18 *525:DIODE *359:53 1.41077e-05
19 *23941:A2 *24123:A 1.72202e-05
20 *23998:C1 *359:29 0.000127804
21 *24125:A *24123:A 5.50049e-05
22 *24209:A *359:36 2.43903e-05
23 *45:10 *359:8 4.31263e-05
24 *45:10 *359:29 4.3407e-05
25 *45:10 *359:36 6.78463e-05
26 *46:10 *359:29 0.000227279
27 *79:8 *24126:A 1.76557e-05
28 *85:10 *359:36 8.41012e-05
29 *89:159 *24123:A 0.000230604
30 *89:159 *359:53 0
31 *89:159 *359:59 0
32 *105:59 *359:36 0
33 *107:50 *359:36 0
34 *139:23 *359:36 0
35 *140:22 *359:36 0
36 *142:8 *359:36 0
37 *143:10 *359:36 0
38 *143:21 *24123:A 0.000228909
39 *194:56 *359:29 0.000616664
40 *195:10 *359:36 0
41 *290:8 *24126:A 0.000267173
42 *290:8 *359:53 0.000143869
43 *308:86 *359:29 2.90694e-05
44 *317:10 *359:8 4.83778e-05
45 *317:10 *359:29 4.58924e-05
46 *317:10 *359:36 5.86165e-05
47 *354:109 *359:59 1.01436e-05
*RES
1 *24220:X *359:6 38 
2 *359:6 *359:8 1.90571 
3 *359:8 *23996:B1 46.6379 
4 *359:8 *359:29 30.7636 
5 *359:29 *23998:B1 23 
6 *359:6 *359:36 23.3864 
7 *359:36 *24123:A 42.93 
8 *359:36 *359:53 18.6043 
9 *359:53 *359:59 30.8493 
10 *359:59 *24127:A2 23 
11 *359:53 *24126:A 27.3293 
*END

*D_NET *360 0.0203553
*CONN
*I *24107:A2 I *D sky130_fd_sc_hd__o211a_1
*I *24104:A2 I *D sky130_fd_sc_hd__o211a_1
*I *24044:B I *D sky130_fd_sc_hd__or2_1
*I *24063:A2 I *D sky130_fd_sc_hd__o211a_1
*I *24055:B I *D sky130_fd_sc_hd__or2_1
*I *24076:A3 I *D sky130_fd_sc_hd__a41o_1
*I *24120:A1 I *D sky130_fd_sc_hd__a21o_1
*I *23986:B I *D sky130_fd_sc_hd__and3_1
*I *24032:B I *D sky130_fd_sc_hd__or2_1
*I *24020:A I *D sky130_fd_sc_hd__nand2_1
*I *24221:X O *D sky130_fd_sc_hd__buf_2
*CAP
1 *24107:A2 0
2 *24104:A2 6.15715e-05
3 *24044:B 0.000140856
4 *24063:A2 0.000339096
5 *24055:B 0
6 *24076:A3 0
7 *24120:A1 0.000107146
8 *23986:B 9.75402e-05
9 *24032:B 0
10 *24020:A 0.000412496
11 *24221:X 0
12 *360:159 0.00068543
13 *360:138 0.000785152
14 *360:113 0.00136639
15 *360:100 0.00153954
16 *360:87 0.000757202
17 *360:74 0.000785519
18 *360:68 0.000963993
19 *360:55 0.000826196
20 *360:30 0.00088846
21 *360:16 0.00231274
22 *360:4 0.0013217
23 *23986:B *420:10 7.59794e-05
24 *24104:A2 *363:34 7.03663e-05
25 *24104:A2 *386:26 1.14452e-05
26 *360:16 *24221:A 1.57571e-05
27 *360:30 *387:12 0.000273612
28 *360:74 *470:8 0.000110913
29 *360:74 *479:8 0
30 *360:87 *470:8 3.70187e-05
31 *360:87 *479:8 0
32 *360:100 *24076:A1 0.000218943
33 *360:100 *24076:A2 0.000220361
34 *360:100 *362:170 0
35 *360:100 *362:174 0
36 *360:100 *362:185 0
37 *360:100 *362:202 0
38 *360:100 *376:10 0.000302694
39 *360:100 *478:10 0.000351626
40 *360:100 *479:8 0
41 *360:113 *24074:B 0.000112073
42 *360:113 *24076:A2 9.67842e-05
43 *360:159 *361:32 0
44 *360:159 *363:34 0.000134687
45 *360:159 *363:78 8.7217e-05
46 *24017:A *360:30 8.62876e-05
47 *24017:A *360:55 5.01986e-05
48 *24020:B *24020:A 9.84794e-05
49 *24029:C *360:55 2.2786e-05
50 *24029:C *360:68 5.45096e-05
51 *24031:B *360:55 3.3746e-05
52 *24033:A2 *360:68 0.000190205
53 *24063:A1 *24063:A2 3.91386e-05
54 *24076:A4 *360:113 0.000266265
55 *24107:B1 *360:159 3.91386e-05
56 *24121:A_N *23986:B 5.3304e-05
57 *24235:A *360:16 0.000506618
58 *24269:A *24120:A1 4.96717e-05
59 *90:159 *360:30 0
60 *105:23 *24104:A2 6.42902e-05
61 *105:23 *360:159 2.60152e-05
62 *105:27 *360:16 2.93845e-05
63 *105:27 *360:138 2.93747e-05
64 *187:35 *360:87 6.7911e-05
65 *187:35 *360:100 1.37349e-05
66 *188:12 *360:74 0.000166513
67 *208:25 *360:16 5.3304e-05
68 *208:25 *360:30 8.4047e-05
69 *208:25 *360:55 3.47781e-05
70 *210:10 *360:55 7.39745e-05
71 *210:29 *360:55 5.33917e-05
72 *212:10 *24020:A 0.000139346
73 *218:43 *360:55 3.7122e-06
74 *220:18 *360:68 9.03157e-05
75 *220:31 *360:68 8.26672e-05
76 *244:10 *24063:A2 2.65879e-05
77 *244:10 *360:113 3.70553e-06
78 *258:22 *360:113 5.50049e-05
79 *260:12 *360:113 1.22831e-05
80 *277:12 *360:159 0.00016839
81 *309:12 *24044:B 0.000198206
82 *309:12 *360:74 0.000532428
83 *309:81 *360:74 7.75329e-06
84 *309:81 *360:87 2.09183e-05
85 *309:81 *360:100 7.91206e-05
86 *321:25 *24044:B 5.70419e-05
87 *347:48 *24063:A2 0.000176901
88 *353:86 *360:159 0
89 *354:40 *360:55 0.000344112
90 *354:90 *360:159 0.000165657
91 *354:101 *360:159 3.22879e-05
92 *356:14 *360:55 0.000142276
93 *356:14 *360:68 0.000247668
94 *356:25 *360:68 2.96909e-05
95 *356:105 *360:68 4.16764e-05
*RES
1 *24221:X *360:4 23 
2 *360:4 *360:16 33.5807 
3 *360:16 *360:30 38.6379 
4 *360:30 *24020:A 45.4571 
5 *360:16 *360:55 27.7186 
6 *360:55 *24032:B 23 
7 *360:55 *360:68 38.5136 
8 *360:68 *360:74 28.2364 
9 *360:74 *23986:B 40.0714 
10 *360:74 *360:87 2.96214 
11 *360:87 *24120:A1 39.5743 
12 *360:87 *360:100 30.2871 
13 *360:100 *24076:A3 23 
14 *360:100 *360:113 15.5771 
15 *360:113 *24055:B 23 
16 *360:113 *24063:A2 29.8357 
17 *360:68 *24044:B 26.9564 
18 *360:4 *360:138 15.6214 
19 *360:138 *24104:A2 39.9057 
20 *360:138 *360:159 30.3907 
21 *360:159 *24107:A2 23 
*END

*D_NET *361 0.023993
*CONN
*I *24140:B I *D sky130_fd_sc_hd__or2_1
*I *24109:B I *D sky130_fd_sc_hd__or2_1
*I *24115:B I *D sky130_fd_sc_hd__or2_1
*I *24118:B I *D sky130_fd_sc_hd__or2_1
*I *24070:A I *D sky130_fd_sc_hd__nand2_1
*I *24074:B I *D sky130_fd_sc_hd__nand3_1
*I *24073:A1 I *D sky130_fd_sc_hd__a21o_1
*I *24112:B I *D sky130_fd_sc_hd__or2_1
*I *24106:A I *D sky130_fd_sc_hd__nand2_1
*I *24221:A I *D sky130_fd_sc_hd__buf_2
*I *24222:X O *D sky130_fd_sc_hd__buf_2
*CAP
1 *24140:B 0
2 *24109:B 0
3 *24115:B 0
4 *24118:B 0
5 *24070:A 0.000139122
6 *24074:B 0.000435061
7 *24073:A1 0
8 *24112:B 0
9 *24106:A 0
10 *24221:A 0.000175709
11 *24222:X 0
12 *361:145 0.000658067
13 *361:126 0.00114428
14 *361:108 0.000871321
15 *361:96 0.00102814
16 *361:65 0.00050074
17 *361:61 0.00170461
18 *361:57 0.00268285
19 *361:47 0.00144471
20 *361:36 0.000573075
21 *361:32 0.00105131
22 *361:23 0.00103241
23 *361:4 0.000833001
24 *24070:A *24064:B1 1.19796e-05
25 *361:57 *475:75 0
26 *361:61 *24314:A 4.9662e-05
27 *361:61 *475:23 0.000116554
28 *361:61 *475:62 0.000150242
29 *361:61 *475:75 0.000136687
30 *361:145 *23954:A 6.97598e-05
31 *361:145 *24300:A 5.67058e-05
32 *361:145 *367:75 0
33 *361:145 *370:10 1.32939e-05
34 *361:145 *418:44 0
35 *517:DIODE *361:23 9.41704e-05
36 *521:DIODE *361:57 5.3304e-05
37 *23954:C *361:145 0.0002831
38 *23965:A *361:126 2.64616e-05
39 *23965:C *361:126 3.68568e-05
40 *24009:A *24074:B 7.80035e-05
41 *24009:A *361:65 0.000116314
42 *24047:B *361:61 5.50106e-05
43 *24060:B *361:61 9.84851e-05
44 *24066:C *24070:A 0
45 *24114:B *361:96 0.000103637
46 *24115:A *361:47 0
47 *24115:A *361:108 0.000223043
48 *24117:B *361:108 5.50106e-05
49 *24301:A *361:32 0.000140259
50 *72:10 *361:32 0.000491451
51 *105:27 *24221:A 0.000139357
52 *105:40 *24221:A 0.000108993
53 *105:40 *361:23 0.000632183
54 *105:42 *361:23 0
55 *105:42 *361:57 0
56 *153:8 *361:108 0.000296075
57 *153:16 *361:108 4.50413e-05
58 *156:21 *361:126 0
59 *156:32 *361:126 0
60 *160:21 *361:47 1.94522e-05
61 *167:10 *361:126 0.000135037
62 *176:8 *361:23 9.39056e-05
63 *182:10 *361:47 0.000130056
64 *182:21 *361:47 8.92944e-05
65 *183:10 *361:47 0.000327903
66 *183:10 *361:108 0
67 *236:10 *361:61 0.000181925
68 *243:10 *24074:B 0
69 *243:10 *361:65 0
70 *244:10 *24074:B 0
71 *256:10 *24070:A 6.07611e-06
72 *260:12 *24074:B 5.56279e-05
73 *260:25 *24074:B 0.000185925
74 *276:10 *361:23 6.68793e-05
75 *277:12 *361:32 0
76 *284:10 *361:108 0.000141954
77 *310:14 *361:126 0.000216712
78 *310:14 *361:145 0.000393287
79 *333:23 *361:126 6.07611e-06
80 *334:10 *361:32 5.70006e-05
81 *340:14 *24074:B 1.14154e-05
82 *353:134 *24074:B 0.000167452
83 *354:101 *361:32 0.000499607
84 *354:153 *361:32 3.83498e-05
85 *354:153 *361:36 0.000675708
86 *354:153 *361:47 0.000114074
87 *355:258 *361:23 0.000171296
88 *355:262 *361:36 0.000675708
89 *355:262 *361:47 0.00097571
90 *355:279 *361:57 1.21972e-05
91 *355:279 *361:96 2.63049e-05
92 *356:72 *361:145 0.000434153
93 *360:16 *24221:A 1.57571e-05
94 *360:113 *24074:B 0.000112073
95 *360:159 *361:32 0
*RES
1 *24222:X *361:4 23 
2 *361:4 *24221:A 26.9979 
3 *361:4 *361:23 44.7486 
4 *361:23 *24106:A 23 
5 *361:23 *361:32 13.0293 
6 *361:32 *361:36 23.9486 
7 *361:36 *24112:B 38 
8 *361:36 *361:47 28.1743 
9 *361:47 *361:57 30.8879 
10 *361:57 *361:61 43.7307 
11 *361:61 *361:65 16.5536 
12 *361:65 *24073:A1 38 
13 *361:65 *24074:B 47.5493 
14 *361:57 *24070:A 40.2579 
15 *361:47 *361:96 3.00357 
16 *361:96 *361:108 47.4414 
17 *361:108 *24118:B 23 
18 *361:96 *24115:B 23 
19 *361:32 *361:126 38.3479 
20 *361:126 *24109:B 23 
21 *361:126 *361:145 45.6807 
22 *361:145 *24140:B 23 
*END

*D_NET *362 0.0251459
*CONN
*I *492:DIODE I *D sky130_fd_sc_hd__diode_2
*I *24089:A1 I *D sky130_fd_sc_hd__o21ai_1
*I *510:DIODE I *D sky130_fd_sc_hd__diode_2
*I *24087:A I *D sky130_fd_sc_hd__or3b_1
*I *490:DIODE I *D sky130_fd_sc_hd__diode_2
*I *23890:A I *D sky130_fd_sc_hd__and3_1
*I *487:DIODE I *D sky130_fd_sc_hd__diode_2
*I *23886:A I *D sky130_fd_sc_hd__and3_1
*I *486:DIODE I *D sky130_fd_sc_hd__diode_2
*I *23881:A I *D sky130_fd_sc_hd__nand2_1
*I *23887:A I *D sky130_fd_sc_hd__nor2_2
*I *488:DIODE I *D sky130_fd_sc_hd__diode_2
*I *508:DIODE I *D sky130_fd_sc_hd__diode_2
*I *23894:A_N I *D sky130_fd_sc_hd__and2b_2
*I *23895:A_N I *D sky130_fd_sc_hd__nand2b_1
*I *24007:A I *D sky130_fd_sc_hd__or3b_1
*I *500:DIODE I *D sky130_fd_sc_hd__diode_2
*I *489:DIODE I *D sky130_fd_sc_hd__diode_2
*I *23888:A I *D sky130_fd_sc_hd__or2_1
*I *491:DIODE I *D sky130_fd_sc_hd__diode_2
*I *24223:X O *D sky130_fd_sc_hd__buf_2
*CAP
1 *492:DIODE 4.17699e-05
2 *24089:A1 0
3 *510:DIODE 0
4 *24087:A 0
5 *490:DIODE 0.000111485
6 *23890:A 0
7 *487:DIODE 0.000146384
8 *23886:A 0.000109763
9 *486:DIODE 0.000177467
10 *23881:A 0
11 *23887:A 1.57743e-05
12 *488:DIODE 0.000146441
13 *508:DIODE 7.38268e-05
14 *23894:A_N 0
15 *23895:A_N 7.43309e-05
16 *24007:A 0
17 *500:DIODE 0
18 *489:DIODE 0
19 *23888:A 0
20 *491:DIODE 7.27204e-05
21 *24223:X 0.000226753
22 *362:202 0.000698449
23 *362:185 0.000899471
24 *362:174 0.000356237
25 *362:170 0.00177462
26 *362:154 0.000232131
27 *362:150 0.00226722
28 *362:132 0.00019821
29 *362:130 0.000886528
30 *362:120 0.000505905
31 *362:105 0.000471253
32 *362:95 0.000321848
33 *362:91 0.000349677
34 *362:47 0.000261718
35 *362:39 0.000717658
36 *362:37 0.000559981
37 *362:33 0.000226613
38 *362:27 0.00021863
39 *362:25 5.58244e-05
40 *362:16 0.000171728
41 *362:14 0.000842806
42 *362:12 0.000568068
43 *362:10 0.000226753
44 *490:DIODE *452:8 8.82787e-05
45 *508:DIODE *400:86 3.66555e-05
46 *23886:A *478:10 4.33731e-05
47 *23895:A_N *23895:B 0.000185368
48 *362:10 *368:62 0
49 *362:14 *23895:B 2.02872e-05
50 *362:25 *23895:B 1.37232e-05
51 *362:27 *23895:B 4.00259e-06
52 *362:47 *369:10 8.62783e-05
53 *362:47 *402:10 0
54 *362:47 *413:10 0
55 *362:91 *400:86 0
56 *362:91 *423:51 0.000192077
57 *362:120 *23898:A 7.87147e-05
58 *362:130 *23898:A 0.000160008
59 *362:150 *449:10 0.000577837
60 *362:170 *405:8 7.8128e-05
61 *362:170 *410:8 0.000197479
62 *362:170 *420:21 0.000169683
63 *362:170 *449:10 0.000348536
64 *362:185 *478:10 0
65 *362:202 *24076:A2 0
66 *362:202 *378:8 0.000113624
67 *362:202 *452:8 0.000247714
68 *362:202 *455:10 3.81554e-05
69 *23886:C *23886:A 9.84794e-05
70 *23890:C *362:202 0.000137425
71 *23898:B *362:120 0.000130971
72 *23898:B *362:130 0.000347197
73 *24019:B *362:170 0
74 *24021:B1 *362:170 0
75 *24076:B1 *362:185 3.70094e-05
76 *24076:B1 *362:202 0.000351617
77 *24080:A1 *362:33 0.000111508
78 *24080:A1 *362:37 1.01436e-05
79 *24080:A2 *362:10 2.65879e-05
80 *24086:B *23895:A_N 0.000270671
81 *24205:A *362:47 1.14452e-05
82 *24206:A *362:47 9.50185e-05
83 *24223:A *362:10 7.53384e-06
84 *58:10 *362:202 0
85 *61:8 *362:10 0
86 *89:28 *486:DIODE 3.71369e-05
87 *90:118 *362:37 0
88 *95:23 *362:150 6.71514e-05
89 *95:36 *362:170 0
90 *95:49 *362:170 0.00210279
91 *95:55 *23886:A 9.41704e-05
92 *95:55 *362:170 0.000507279
93 *95:55 *362:174 2.24608e-05
94 *95:66 *362:202 6.7177e-06
95 *95:79 *362:202 0.000126044
96 *95:99 *362:202 2.76611e-06
97 *96:8 *486:DIODE 1.24376e-05
98 *96:8 *362:154 4.5051e-05
99 *97:17 *362:174 1.12487e-05
100 *97:17 *362:185 0.000163065
101 *97:17 *362:202 0.000401577
102 *99:31 *362:33 7.46108e-05
103 *100:10 *492:DIODE 2.32101e-05
104 *100:10 *362:10 0
105 *100:10 *362:14 4.21281e-05
106 *103:14 *362:130 4.9662e-05
107 *103:14 *362:150 6.32792e-05
108 *107:14 *362:10 8.72173e-05
109 *188:12 *362:170 0.000210885
110 *199:10 *362:91 0
111 *200:12 *362:37 0.000111852
112 *200:44 *362:33 0.000186972
113 *200:44 *362:37 5.15096e-05
114 *200:44 *362:91 7.39713e-05
115 *200:44 *362:105 0
116 *200:44 *362:120 0
117 *211:10 *362:170 6.78463e-05
118 *261:8 *362:202 0.000169683
119 *268:10 *362:130 1.79175e-05
120 *309:18 *362:170 6.48142e-05
121 *309:81 *362:170 0.000614055
122 *311:14 *362:150 0.000197479
123 *312:12 *362:14 0.000530156
124 *312:28 *23895:A_N 1.56665e-05
125 *312:28 *362:33 4.96717e-05
126 *313:12 *362:150 0.000307223
127 *313:12 *362:170 0.00021261
128 *354:32 *362:170 0
129 *360:100 *362:170 0
130 *360:100 *362:174 0
131 *360:100 *362:185 0
132 *360:100 *362:202 0
*RES
1 *24223:X *362:10 42.06 
2 *362:10 *362:12 15 
3 *362:12 *362:14 7.76786 
4 *362:14 *362:16 1.09786 
5 *362:16 *491:DIODE 24.0979 
6 *362:16 *362:25 0.849286 
7 *362:25 *362:27 0.497143 
8 *362:27 *362:33 18.7079 
9 *362:33 *362:37 17.2579 
10 *362:37 *362:39 5.86214 
11 *362:39 *362:47 34.3086 
12 *362:47 *23888:A 23 
13 *362:39 *489:DIODE 23 
14 *362:37 *500:DIODE 23 
15 *362:33 *24007:A 38 
16 *362:27 *23895:A_N 26.48 
17 *362:25 *23894:A_N 23 
18 *362:14 *362:91 35.9657 
19 *362:91 *362:95 1.82286 
20 *362:95 *362:105 19.35 
21 *362:105 *508:DIODE 39.0979 
22 *362:105 *362:120 18.48 
23 *362:120 *362:130 8.45143 
24 *362:130 *362:132 0.621429 
25 *362:132 *488:DIODE 25.0507 
26 *362:132 *23887:A 23.4971 
27 *362:130 *362:150 29.935 
28 *362:150 *362:154 16.0979 
29 *362:154 *23881:A 23 
30 *362:154 *486:DIODE 26.0243 
31 *362:150 *362:170 52.4382 
32 *362:170 *362:174 1.29464 
33 *362:174 *23886:A 40.5271 
34 *362:174 *362:185 4.37071 
35 *362:185 *487:DIODE 39.5743 
36 *362:185 *362:202 33.5807 
37 *362:202 *23890:A 23 
38 *362:202 *490:DIODE 25.5271 
39 *362:120 *24087:A 23 
40 *362:95 *510:DIODE 23 
41 *362:91 *24089:A1 23 
42 *362:12 *492:DIODE 23.6214 
*END

*D_NET *363 0.0152087
*CONN
*I *23961:B I *D sky130_fd_sc_hd__nand2_1
*I *24034:B I *D sky130_fd_sc_hd__and3_1
*I *23952:A2 I *D sky130_fd_sc_hd__a21oi_1
*I *24035:A2 I *D sky130_fd_sc_hd__a21oi_1
*I *24023:A2 I *D sky130_fd_sc_hd__a22o_1
*I *24024:C I *D sky130_fd_sc_hd__nand4_1
*I *24013:A2 I *D sky130_fd_sc_hd__a22o_1
*I *24014:C I *D sky130_fd_sc_hd__nand4_1
*I *23969:A2 I *D sky130_fd_sc_hd__a22o_1
*I *23962:C I *D sky130_fd_sc_hd__nand4_1
*I *24224:X O *D sky130_fd_sc_hd__buf_2
*CAP
1 *23961:B 0.000150438
2 *24034:B 0.000196713
3 *23952:A2 0
4 *24035:A2 0.000126387
5 *24023:A2 0
6 *24024:C 0
7 *24013:A2 0
8 *24014:C 0.000104914
9 *23969:A2 0
10 *23962:C 0.000258483
11 *24224:X 0
12 *363:107 0.00156071
13 *363:95 0.00187068
14 *363:78 0.000561213
15 *363:52 0.000652692
16 *363:42 0.000646499
17 *363:40 0.000454631
18 *363:34 0.00122519
19 *363:14 0.000341787
20 *363:8 0.000822687
21 *363:4 0.00034211
22 *23961:B *23961:A 0.000148073
23 *23962:C *23962:A 9.67842e-05
24 *23962:C *23962:B 9.62764e-05
25 *23962:C *23969:A1 3.98859e-05
26 *23962:C *384:30 1.97329e-05
27 *24014:C *24013:A1 0.0002246
28 *24014:C *24014:A 0.000141052
29 *24035:A2 *411:27 4.58601e-05
30 *24035:A2 *473:10 7.70465e-05
31 *363:8 *23961:A 0.000353214
32 *363:34 *386:26 0.000123282
33 *363:40 *24023:B2 9.84794e-05
34 *363:40 *24024:D 4.5051e-05
35 *363:40 *367:81 0.000276143
36 *363:40 *444:84 5.50049e-05
37 *363:42 *24024:D 0.000442771
38 *363:42 *444:84 0.000215426
39 *363:52 *24024:D 2.90712e-05
40 *363:52 *365:95 7.57281e-06
41 *363:52 *444:76 0
42 *363:95 *473:10 0.000220047
43 *363:107 *24186:D 3.54023e-05
44 *363:107 *445:25 0.000265439
45 *363:107 *473:10 4.38068e-06
46 *23957:B *363:107 5.50049e-05
47 *23968:A1 *23961:B 4.00259e-06
48 *23968:A2 *23961:B 1.37232e-05
49 *24030:A1 *363:52 3.63084e-05
50 *24035:B1 *24035:A2 5.67058e-05
51 *24036:B *24034:B 0.000129024
52 *24036:B *363:78 0
53 *24036:B *363:107 3.0647e-05
54 *24037:A2 *24035:A2 0
55 *24103:A1 *363:34 0
56 *24104:A2 *363:34 7.03663e-05
57 *24105:B *363:34 0
58 *24186:CLK *363:107 0.000274083
59 *105:23 *363:14 0
60 *105:23 *363:34 0
61 *105:42 *24034:B 0
62 *105:42 *363:107 0
63 *106:16 *363:52 0.000807947
64 *155:20 *363:107 8.57986e-05
65 *163:6 *23961:B 5.50106e-05
66 *164:8 *23962:C 0.000117769
67 *224:8 *24034:B 6.07611e-06
68 *225:8 *24035:A2 7.88828e-05
69 *225:8 *363:95 0.000168821
70 *274:8 *363:34 0
71 *310:110 *363:107 0.000118987
72 *310:116 *363:107 7.78764e-05
73 *353:80 *23962:C 9.98995e-05
74 *353:80 *363:14 3.51169e-05
75 *353:80 *363:34 0.00028897
76 *353:86 *363:78 0
77 *354:90 *363:78 0
78 *355:214 *363:34 0
79 *360:159 *363:34 0.000134687
80 *360:159 *363:78 8.7217e-05
*RES
1 *24224:X *363:4 23 
2 *363:4 *363:8 18.9564 
3 *363:8 *363:14 1.61571 
4 *363:14 *23962:C 44.5664 
5 *363:14 *23969:A2 38 
6 *363:8 *363:34 13.5264 
7 *363:34 *363:40 23.265 
8 *363:40 *363:42 4.90929 
9 *363:42 *363:52 43.6093 
10 *363:52 *24014:C 26.0036 
11 *363:52 *24013:A2 23 
12 *363:42 *24024:C 23 
13 *363:40 *24023:A2 23 
14 *363:34 *363:78 21.1314 
15 *363:78 *24035:A2 27.1429 
16 *363:78 *363:95 19.4329 
17 *363:95 *363:107 41.1829 
18 *363:107 *23952:A2 23 
19 *363:95 *24034:B 41.6664 
20 *363:4 *23961:B 26.3764 
*END

*D_NET *364 0.0212699
*CONN
*I *24224:A I *D sky130_fd_sc_hd__buf_2
*I *23907:C I *D sky130_fd_sc_hd__nand4_1
*I *23913:A2 I *D sky130_fd_sc_hd__a22o_1
*I *23924:A2 I *D sky130_fd_sc_hd__a22oi_1
*I *23905:B I *D sky130_fd_sc_hd__and2_1
*I *23915:C I *D sky130_fd_sc_hd__and4_1
*I *23936:A2 I *D sky130_fd_sc_hd__a22o_1
*I *23926:C I *D sky130_fd_sc_hd__nand4_4
*I *24144:A2 I *D sky130_fd_sc_hd__a32o_1
*I *23991:A1 I *D sky130_fd_sc_hd__o211a_1
*I *24225:X O *D sky130_fd_sc_hd__clkbuf_4
*CAP
1 *24224:A 5.86438e-05
2 *23907:C 8.67597e-05
3 *23913:A2 1.96641e-05
4 *23924:A2 0.000164976
5 *23905:B 0
6 *23915:C 0
7 *23936:A2 4.60383e-05
8 *23926:C 0
9 *24144:A2 0.000146543
10 *23991:A1 0
11 *24225:X 0
12 *364:139 0.00168109
13 *364:117 0.000284931
14 *364:95 0.000356522
15 *364:89 0.000521498
16 *364:87 0.000250775
17 *364:80 7.09785e-05
18 *364:74 0.000656118
19 *364:61 0.000683839
20 *364:50 0.000313673
21 *364:39 0.000335287
22 *364:37 0.00145603
23 *364:29 0.00420641
24 *364:10 0.000115664
25 *364:4 0.0012436
26 *23907:C *23907:D 7.42621e-05
27 *23913:A2 *23907:D 4.00259e-06
28 *23913:A2 *23913:B1 5.90675e-06
29 *23924:A2 *23924:A1 1.55941e-05
30 *23924:A2 *367:41 8.83018e-05
31 *23924:A2 *442:44 5.27196e-05
32 *23924:A2 *459:10 4.14048e-05
33 *23936:A2 *398:76 0.000315852
34 *23936:A2 *432:41 0.000315852
35 *24144:A2 *366:16 0
36 *24144:A2 *366:55 9.39159e-05
37 *24144:A2 *432:45 8.94394e-05
38 *24224:A *23961:A 9.5877e-05
39 *364:10 *401:10 0.000110922
40 *364:29 *23899:A1 0
41 *364:29 *365:19 0
42 *364:29 *372:10 0.000185434
43 *364:29 *375:10 0.000136486
44 *364:29 *401:10 4.66047e-05
45 *364:29 *437:8 0.000190568
46 *364:37 *366:8 5.50049e-05
47 *364:37 *366:10 1.41077e-05
48 *364:37 *366:16 0.000121856
49 *364:37 *407:10 5.50049e-05
50 *364:50 *366:16 0
51 *364:50 *432:45 0.000354778
52 *364:61 *23940:B 0
53 *364:61 *366:27 0
54 *364:61 *432:41 0.000238454
55 *364:61 *432:45 1.14452e-05
56 *364:74 *367:41 9.67842e-05
57 *364:74 *398:76 0.000166079
58 *364:74 *432:41 5.3304e-05
59 *364:80 *366:113 0.000110922
60 *364:80 *367:29 1.58805e-05
61 *364:80 *367:62 3.83778e-05
62 *364:87 *366:113 7.15126e-05
63 *364:87 *367:41 0.000178517
64 *364:95 *366:75 0.000246748
65 *364:95 *366:88 0.000165593
66 *364:95 *366:105 0.000402076
67 *364:95 *398:48 5.50049e-05
68 *364:95 *441:25 1.37349e-05
69 *364:95 *442:59 0
70 *364:95 *459:10 0.000319136
71 *364:117 *23907:D 5.70419e-05
72 *364:117 *366:113 2.02872e-05
73 *364:117 *366:120 6.97953e-05
74 *364:117 *367:41 5.50106e-05
75 *364:117 *441:25 9.84851e-05
76 *364:139 *365:19 0
77 *364:139 *365:38 0
78 *364:139 *365:46 0.000449293
79 *364:139 *463:10 0.000138718
80 *23906:B1_N *364:95 1.17152e-05
81 *23989:B1 *364:29 0.000644742
82 *24000:B1 *364:37 2.3191e-05
83 *24225:A *364:29 0.00059353
84 *24249:A *364:29 0.000306266
85 *24255:A *364:37 0.000181919
86 *44:8 *364:139 0.000164272
87 *102:25 *364:29 0
88 *107:73 *24144:A2 2.34364e-05
89 *116:8 *23907:C 1.32939e-05
90 *127:10 *23924:A2 1.46586e-05
91 *128:8 *24144:A2 0.000140958
92 *164:12 *364:139 0.000250839
93 *179:23 *364:139 0
94 *190:8 *364:29 5.56306e-05
95 *194:16 *364:29 0
96 *194:37 *364:37 0.000123919
97 *194:56 *364:37 9.42907e-05
98 *302:10 *364:95 0.000223043
99 *323:10 *364:29 0
100 *355:40 *364:139 0
101 *355:51 *364:139 2.29192e-05
102 *355:63 *364:139 6.6869e-05
103 *355:194 *364:139 7.92931e-05
104 *355:214 *364:139 0
*RES
1 *24225:X *364:4 23 
2 *364:4 *364:10 31.9057 
3 *364:10 *23991:A1 23 
4 *364:4 *364:29 44.6629 
5 *364:29 *364:37 37.2264 
6 *364:37 *364:39 15 
7 *364:39 *24144:A2 41.6664 
8 *364:39 *364:50 4.72286 
9 *364:50 *23926:C 38 
10 *364:50 *364:61 18.3143 
11 *364:61 *23936:A2 26.48 
12 *364:61 *364:74 8.88643 
13 *364:74 *364:80 31.5536 
14 *364:80 *23915:C 23 
15 *364:74 *364:87 2.05071 
16 *364:87 *364:89 15 
17 *364:89 *364:95 27.3871 
18 *364:95 *23905:B 23 
19 *364:89 *23924:A2 41.1952 
20 *364:87 *364:117 3.95643 
21 *364:117 *23913:A2 23.4971 
22 *364:117 *23907:C 25.0507 
23 *364:29 *364:139 49.0129 
24 *364:139 *24224:A 24.0979 
*END

*D_NET *365 0.0188952
*CONN
*I *24122:A2 I *D sky130_fd_sc_hd__a31o_1
*I *24013:B1 I *D sky130_fd_sc_hd__a22o_1
*I *24014:D I *D sky130_fd_sc_hd__nand4_1
*I *24010:B I *D sky130_fd_sc_hd__and3_1
*I *24005:A2 I *D sky130_fd_sc_hd__a31o_1
*I *23969:B1 I *D sky130_fd_sc_hd__a22o_1
*I *23962:D I *D sky130_fd_sc_hd__nand4_1
*I *23960:B I *D sky130_fd_sc_hd__and2_1
*I *24142:B I *D sky130_fd_sc_hd__and3_1
*I *23989:A1 I *D sky130_fd_sc_hd__o211a_1
*I *24226:X O *D sky130_fd_sc_hd__buf_2
*CAP
1 *24122:A2 2.84835e-05
2 *24013:B1 0
3 *24014:D 0
4 *24010:B 0.000152972
5 *24005:A2 0
6 *23969:B1 0.000192178
7 *23962:D 0
8 *23960:B 0
9 *24142:B 5.67095e-05
10 *23989:A1 0.000136989
11 *24226:X 0.000132738
12 *365:103 0.000396085
13 *365:97 0.000811184
14 *365:95 0.000662804
15 *365:83 0.00097436
16 *365:68 0.000855858
17 *365:59 0.000610509
18 *365:46 0.00130506
19 *365:38 0.00109819
20 *365:27 0.000729689
21 *365:19 0.00188593
22 *365:8 0.00119751
23 *23969:B1 *23961:A 1.56665e-05
24 *23969:B1 *23969:A1 5.50106e-05
25 *23969:B1 *24259:A 2.98648e-05
26 *23969:B1 *444:34 0.000139357
27 *23989:A1 *482:8 0.000141869
28 *23989:A1 *483:8 1.14452e-05
29 *24122:A2 *406:64 2.47321e-05
30 *24122:A2 *439:25 0.000143874
31 *24142:B *432:14 1.59094e-05
32 *365:8 *367:6 8.06804e-06
33 *365:19 *482:8 1.01436e-05
34 *365:27 *437:23 3.83778e-05
35 *365:59 *23960:A 5.50106e-05
36 *365:59 *411:38 0
37 *365:59 *444:19 0.000185686
38 *365:59 *444:30 1.47563e-05
39 *365:68 *411:38 0
40 *365:68 *444:30 8.51329e-05
41 *365:83 *24014:A 4.95081e-05
42 *365:83 *411:38 0
43 *365:83 *444:30 1.83667e-05
44 *365:83 *444:56 0.000863525
45 *365:83 *444:58 5.50049e-05
46 *365:83 *447:10 0.000108672
47 *365:95 *24021:A1 1.29773e-05
48 *365:95 *444:76 4.35681e-06
49 *365:95 *446:42 1.05658e-05
50 *365:97 *24010:C 3.39231e-05
51 *365:97 *24021:A1 1.01436e-05
52 *365:97 *446:42 0.000215325
53 *365:103 *24005:B1 0.000207594
54 *365:103 *24010:C 4.38375e-05
55 *365:103 *446:29 0.000278634
56 *23897:B *23989:A1 0.000195238
57 *23897:B *365:19 0.000282721
58 *23989:A2 *23989:A1 0.00019747
59 *23989:B1 *365:19 7.75329e-06
60 *24097:A2 *365:59 0
61 *24122:A3 *24122:A2 0.000100069
62 *24216:A *24010:B 6.56058e-05
63 *24216:A *365:97 9.03784e-05
64 *24216:A *365:103 0.000176541
65 *24242:A *365:46 5.76076e-05
66 *24257:A *365:103 0.000137786
67 *42:8 *23989:A1 4.83778e-05
68 *89:35 *365:103 0.000409917
69 *89:96 *365:19 0.000381644
70 *105:23 *365:59 0.000182826
71 *107:25 *365:27 8.62783e-05
72 *162:8 *365:46 0.000110951
73 *179:16 *365:46 0.000163168
74 *179:23 *365:46 0.00014933
75 *194:37 *365:19 5.76076e-05
76 *198:8 *365:103 4.947e-05
77 *201:10 *365:103 0.000623269
78 *287:8 *365:46 0.000140958
79 *308:19 *365:19 0
80 *308:25 *365:19 0
81 *308:50 *365:8 9.41704e-05
82 *308:145 *365:19 0
83 *308:162 *365:38 0
84 *308:162 *365:46 0
85 *308:168 *365:46 0
86 *355:14 *365:27 0.000351513
87 *355:40 *365:27 5.3304e-05
88 *355:63 *365:38 2.35393e-05
89 *355:63 *365:46 8.62783e-05
90 *357:10 *365:59 0
91 *357:38 *365:59 0
92 *357:76 *365:97 0
93 *363:52 *365:95 7.57281e-06
94 *364:29 *365:19 0
95 *364:139 *365:19 0
96 *364:139 *365:38 0
97 *364:139 *365:46 0.000449293
*RES
1 *24226:X *365:8 39.5743 
2 *365:8 *23989:A1 43.075 
3 *365:8 *365:19 18.8086 
4 *365:19 *365:27 39.4457 
5 *365:27 *24142:B 38.6214 
6 *365:19 *365:38 4.72286 
7 *365:38 *365:46 34.6371 
8 *365:46 *23960:B 23 
9 *365:46 *365:59 25.3571 
10 *365:59 *23962:D 38 
11 *365:59 *365:68 2.25786 
12 *365:68 *23969:B1 41.48 
13 *365:68 *365:83 28.6921 
14 *365:83 *365:95 32.4709 
15 *365:95 *365:97 6.83571 
16 *365:97 *365:103 30.1421 
17 *365:103 *24005:A2 23 
18 *365:97 *24010:B 40.0507 
19 *365:95 *24014:D 38 
20 *365:83 *24013:B1 23 
21 *365:38 *24122:A2 39.5743 
*END

*D_NET *366 0.0112947
*CONN
*I *23907:D I *D sky130_fd_sc_hd__nand4_1
*I *23913:B1 I *D sky130_fd_sc_hd__a22o_1
*I *23915:D I *D sky130_fd_sc_hd__and4_1
*I *23906:A2 I *D sky130_fd_sc_hd__a21bo_1
*I *23914:B I *D sky130_fd_sc_hd__and2_1
*I *23925:B I *D sky130_fd_sc_hd__nand2_1
*I *24144:B1 I *D sky130_fd_sc_hd__a32o_1
*I *23940:B I *D sky130_fd_sc_hd__and3_1
*I *23936:B1 I *D sky130_fd_sc_hd__a22o_1
*I *23926:D I *D sky130_fd_sc_hd__nand4_4
*I *24227:X O *D sky130_fd_sc_hd__buf_2
*CAP
1 *23907:D 8.8851e-05
2 *23913:B1 2.14194e-05
3 *23915:D 0
4 *23906:A2 0.000176651
5 *23914:B 0
6 *23925:B 0
7 *24144:B1 0
8 *23940:B 0.000440088
9 *23936:B1 0
10 *23926:D 6.80678e-05
11 *24227:X 0
12 *366:120 0.000217084
13 *366:113 0.000190053
14 *366:105 0.000403388
15 *366:88 0.000455422
16 *366:75 0.000270115
17 *366:67 0.000618546
18 *366:55 0.000132782
19 *366:27 0.000566314
20 *366:16 0.00056902
21 *366:10 0.000535366
22 *366:8 0.000446767
23 *366:4 0.000595091
24 *23906:A2 *441:25 5.3304e-05
25 *23940:B *23940:C 1.58415e-05
26 *23940:B *432:41 0
27 *366:8 *24146:A1 4.42566e-05
28 *366:16 *23936:B2 0.000437235
29 *366:27 *23936:B2 0.000238454
30 *366:55 *23936:B2 0
31 *366:55 *24144:B2 2.55176e-05
32 *366:55 *434:31 2.39868e-05
33 *366:75 *367:25 0
34 *366:75 *434:63 0.000246757
35 *366:75 *459:10 0.000194309
36 *366:88 *441:25 3.47781e-05
37 *366:105 *441:25 0.000411299
38 *366:113 *367:29 1.94418e-05
39 *366:113 *459:10 0.000163361
40 *366:120 *441:25 9.84851e-05
41 *23906:B1_N *366:88 6.22372e-05
42 *23907:C *23907:D 7.42621e-05
43 *23913:A2 *23907:D 4.00259e-06
44 *23913:A2 *23913:B1 5.90675e-06
45 *24143:B *23940:B 6.17437e-06
46 *24144:A2 *366:16 0
47 *24144:A2 *366:55 9.39159e-05
48 *24145:B *366:75 1.44813e-05
49 *24146:A2 *366:8 0.000351502
50 *24146:A2 *366:67 0.000296509
51 *24146:A2 *366:88 8.17328e-05
52 *24146:B1 *366:8 2.64616e-05
53 *85:10 *23940:B 3.22051e-05
54 *107:50 *23940:B 2.96051e-05
55 *116:8 *23907:D 3.22879e-05
56 *130:10 *23906:A2 0.000126584
57 *139:10 *23940:B 2.54046e-05
58 *139:23 *23940:B 4.99753e-06
59 *143:10 *23940:B 3.22879e-05
60 *194:56 *366:16 5.50049e-05
61 *194:56 *366:55 0
62 *302:10 *366:75 8.92841e-05
63 *308:86 *366:75 5.50106e-05
64 *326:46 *23906:A2 5.50106e-05
65 *355:101 *23940:B 0.000602878
66 *359:36 *23940:B 0
67 *364:37 *366:8 5.50049e-05
68 *364:37 *366:10 1.41077e-05
69 *364:37 *366:16 0.000121856
70 *364:50 *366:16 0
71 *364:61 *23940:B 0
72 *364:61 *366:27 0
73 *364:80 *366:113 0.000110922
74 *364:87 *366:113 7.15126e-05
75 *364:95 *366:75 0.000246748
76 *364:95 *366:88 0.000165593
77 *364:95 *366:105 0.000402076
78 *364:117 *23907:D 5.70419e-05
79 *364:117 *366:113 2.02872e-05
80 *364:117 *366:120 6.97953e-05
*RES
1 *24227:X *366:4 23 
2 *366:4 *366:8 7.66429 
3 *366:8 *366:10 0.621429 
4 *366:10 *366:16 24.2593 
5 *366:16 *23926:D 39.0979 
6 *366:16 *366:27 3.31429 
7 *366:27 *23936:B1 38 
8 *366:27 *23940:B 49.1029 
9 *366:10 *366:55 32.8896 
10 *366:55 *24144:B1 23 
11 *366:8 *23925:B 23 
12 *366:4 *366:67 3.48 
13 *366:67 *366:75 37.105 
14 *366:75 *23914:B 23 
15 *366:67 *366:88 18.8529 
16 *366:88 *23906:A2 42.1221 
17 *366:88 *366:105 20.4271 
18 *366:105 *366:113 34.3086 
19 *366:113 *23915:D 23 
20 *366:105 *366:120 2.52714 
21 *366:120 *23913:B1 23.4971 
22 *366:120 *23907:D 26.0243 
*END

*D_NET *367 0.0245463
*CONN
*I *24227:A I *D sky130_fd_sc_hd__buf_2
*I *23959:A2 I *D sky130_fd_sc_hd__a21o_1
*I *24023:B1 I *D sky130_fd_sc_hd__a22o_1
*I *24024:D I *D sky130_fd_sc_hd__nand4_1
*I *23954:B I *D sky130_fd_sc_hd__nand3_1
*I *23924:B1 I *D sky130_fd_sc_hd__a22oi_1
*I *24226:A I *D sky130_fd_sc_hd__buf_2
*I *24228:X O *D sky130_fd_sc_hd__buf_2
*CAP
1 *24227:A 0.000134875
2 *23959:A2 0
3 *24023:B1 0
4 *24024:D 0.000235398
5 *23954:B 0
6 *23924:B1 0
7 *24226:A 4.01155e-05
8 *24228:X 0.000328249
9 *367:103 0.000209069
10 *367:81 0.00218125
11 *367:75 0.00273352
12 *367:62 0.00253868
13 *367:41 0.000467266
14 *367:29 0.0028155
15 *367:25 0.00102342
16 *367:23 0.00227198
17 *367:6 0.00213997
18 *367:6 *23899:A1 1.39317e-05
19 *367:23 *434:10 0.000141954
20 *367:23 *440:12 0.000317553
21 *367:25 *434:63 7.63049e-05
22 *367:25 *440:23 0.000164364
23 *367:25 *459:10 4.58924e-05
24 *367:29 *440:23 0.000363508
25 *367:29 *459:10 0
26 *367:62 *24130:A1 0
27 *367:62 *440:23 3.47776e-05
28 *367:62 *442:23 7.75329e-06
29 *367:62 *459:10 0
30 *367:62 *466:8 0
31 *367:75 *370:10 0.000168744
32 *367:75 *418:44 0
33 *367:81 *24023:B2 9.84794e-05
34 *367:103 *23959:A1 0.000143655
35 *23924:A2 *367:41 8.83018e-05
36 *23929:A2 *367:62 4.24313e-05
37 *23931:B1_N *367:62 3.79743e-05
38 *23966:A1 *367:103 0
39 *23980:A2 *367:81 0.000180348
40 *23980:B1_N *367:81 2.64616e-05
41 *24030:A1 *24024:D 7.69576e-05
42 *24105:A *367:81 0.000742784
43 *24145:B *367:25 0
44 *24146:A2 *24227:A 0.000219383
45 *89:139 *367:25 0.000141879
46 *127:10 *367:62 4.48671e-05
47 *129:73 *367:29 0.000225265
48 *131:10 *367:62 0.000107625
49 *131:21 *367:62 0.000170848
50 *132:23 *367:62 7.75329e-06
51 *138:8 *367:62 8.62783e-05
52 *144:16 *367:62 0
53 *145:8 *367:62 0.000435004
54 *182:8 *367:81 5.3304e-05
55 *214:10 *24024:D 5.67058e-05
56 *215:10 *24024:D 9.84851e-05
57 *276:10 *367:81 0.000399291
58 *292:8 *367:62 0
59 *308:50 *367:6 1.59094e-05
60 *308:50 *367:23 0.0002459
61 *308:61 *367:23 3.71251e-05
62 *310:14 *367:103 8.4047e-05
63 *310:22 *367:62 0
64 *310:22 *367:75 0
65 *310:30 *367:62 4.21594e-06
66 *310:74 *367:75 0
67 *326:20 *367:25 1.12487e-05
68 *333:8 *367:103 0.000141954
69 *333:23 *367:103 0
70 *343:23 *367:25 0
71 *343:23 *367:62 0
72 *343:25 *367:62 0
73 *343:25 *367:103 0.000138911
74 *356:72 *367:75 0.000513881
75 *356:72 *367:81 0.000209878
76 *361:145 *367:75 0
77 *363:40 *24024:D 4.5051e-05
78 *363:40 *367:81 0.000276143
79 *363:42 *24024:D 0.000442771
80 *363:52 *24024:D 2.90712e-05
81 *364:74 *367:41 9.67842e-05
82 *364:80 *367:29 1.58805e-05
83 *364:80 *367:62 3.83778e-05
84 *364:87 *367:41 0.000178517
85 *364:117 *367:41 5.50106e-05
86 *365:8 *367:6 8.06804e-06
87 *366:75 *367:25 0
88 *366:113 *367:29 1.94418e-05
*RES
1 *24228:X *367:6 27.9093 
2 *367:6 *24226:A 23.8493 
3 *367:6 *367:23 44.6214 
4 *367:23 *367:25 11.4136 
5 *367:25 *367:29 10.2743 
6 *367:29 *367:41 36.2764 
7 *367:41 *23924:B1 38 
8 *367:29 *367:62 38.9636 
9 *367:62 *23954:B 38 
10 *367:62 *367:75 24.8807 
11 *367:75 *367:81 36.0429 
12 *367:81 *24024:D 29.8357 
13 *367:81 *24023:B1 23 
14 *367:75 *367:103 35.5929 
15 *367:103 *23959:A2 23 
16 *367:25 *24227:A 40.5271 
*END

*D_NET *368 0.0274624
*CONN
*I *24092:C1 I *D sky130_fd_sc_hd__a2111oi_1
*I *512:DIODE I *D sky130_fd_sc_hd__diode_2
*I *493:DIODE I *D sky130_fd_sc_hd__diode_2
*I *23904:A I *D sky130_fd_sc_hd__nor2_2
*I *24091:B1 I *D sky130_fd_sc_hd__a21oi_1
*I *511:DIODE I *D sky130_fd_sc_hd__diode_2
*I *24082:C1 I *D sky130_fd_sc_hd__a311oi_1
*I *506:DIODE I *D sky130_fd_sc_hd__diode_2
*I *485:DIODE I *D sky130_fd_sc_hd__diode_2
*I *23874:A I *D sky130_fd_sc_hd__inv_2
*I *24321:X O *D sky130_fd_sc_hd__buf_2
*CAP
1 *24092:C1 0
2 *512:DIODE 0.000177611
3 *493:DIODE 0
4 *23904:A 4.9927e-05
5 *24091:B1 0.000107557
6 *511:DIODE 0
7 *24082:C1 0
8 *506:DIODE 5.54173e-05
9 *485:DIODE 0
10 *23874:A 4.9927e-05
11 *24321:X 0.00126523
12 *368:110 0.000861011
13 *368:91 0.000734182
14 *368:80 0.00041194
15 *368:64 0.000107557
16 *368:62 0.00116801
17 *368:44 0.00067614
18 *368:30 0.00183919
19 *368:21 0.000408505
20 *368:10 0.00701954
21 *368:8 0.0069228
22 *368:6 0.00126523
23 *23904:A *23898:A 5.41385e-05
24 *368:62 *400:43 0
25 *368:62 *400:56 0.000187996
26 *368:62 *400:69 0.00024524
27 *368:62 *400:86 6.26356e-05
28 *368:62 *428:8 2.76611e-06
29 *368:62 *436:10 0
30 *368:80 *400:86 0.000171848
31 *368:80 *428:8 2.5415e-05
32 *494:DIODE *368:80 0
33 *24082:A2 *368:44 0.000372393
34 *24082:A3 *368:44 5.50106e-05
35 *24083:A_N *368:44 0.000317706
36 *24083:B *368:44 1.59094e-05
37 *24087:B *368:80 6.86012e-05
38 *24088:A1 *368:110 0.000281845
39 *24092:A1 *368:110 0.000347205
40 *24176:D *368:110 2.13733e-05
41 *24277:A *24091:B1 5.37348e-06
42 *60:10 *368:30 6.03634e-05
43 *60:10 *368:62 4.66036e-05
44 *61:8 *368:62 0.000381644
45 *89:28 *368:110 1.57571e-05
46 *90:8 *23874:A 5.41385e-05
47 *90:49 *368:44 0.000359819
48 *92:10 *368:10 1.01436e-05
49 *92:10 *368:21 7.93144e-05
50 *92:10 *368:30 7.48331e-05
51 *101:12 *368:62 0
52 *103:27 *24091:B1 8.85299e-06
53 *107:14 *368:80 0
54 *200:22 *368:44 4.57624e-05
55 *264:10 *368:62 0
56 *267:8 *368:30 0.000134677
57 *267:8 *368:62 4.74809e-05
58 *305:10 *368:10 6.32688e-05
59 *305:10 *368:30 2.70366e-05
60 *307:28 *368:62 0
61 *311:14 *368:110 0.000518218
62 *311:25 *368:110 0.000100061
63 *311:43 *368:110 0
64 *312:12 *368:62 0
65 *324:16 *368:80 4.6318e-06
66 *324:16 *368:91 3.97502e-05
67 *324:16 *368:110 3.47776e-05
68 *355:14 *368:91 0
69 *355:14 *368:110 0
70 *362:10 *368:62 0
*RES
1 *24321:X *368:6 39.82 
2 *368:6 *368:8 15 
3 *368:8 *368:10 136.072 
4 *368:10 *23874:A 39.0979 
5 *368:10 *368:21 1.20143 
6 *368:21 *485:DIODE 38 
7 *368:21 *368:30 8.24429 
8 *368:30 *368:44 29.79 
9 *368:44 *506:DIODE 24.0979 
10 *368:44 *24082:C1 23 
11 *368:30 *368:62 18.1664 
12 *368:62 *368:64 15 
13 *368:64 *511:DIODE 23 
14 *368:64 *24091:B1 24.595 
15 *368:62 *368:80 7.54 
16 *368:80 *23904:A 39.0979 
17 *368:80 *368:91 1.20143 
18 *368:91 *493:DIODE 38 
19 *368:91 *368:110 29.8729 
20 *368:110 *512:DIODE 25.0507 
21 *368:110 *24092:C1 23 
*END

*D_NET *369 0.0156453
*CONN
*I *532:DIODE I *D sky130_fd_sc_hd__diode_2
*I *24327:A I *D sky130_fd_sc_hd__buf_2
*I *24205:X O *D sky130_fd_sc_hd__buf_1
*CAP
1 *532:DIODE 4.83967e-05
2 *24327:A 0.000104681
3 *24205:X 0.000167902
4 *369:14 0.0028511
5 *369:12 0.00274612
6 *369:10 0.00223657
7 *369:8 0.00235638
8 *369:10 *391:10 0.00121659
9 *369:10 *402:10 0
10 *369:14 *391:10 0.00230485
11 *23888:B *369:8 1.79651e-05
12 *24183:CLK *369:10 0
13 *24205:A *369:8 1.57571e-05
14 *24206:A *369:10 3.07161e-05
15 *59:8 *369:10 4.83778e-05
16 *68:8 *369:10 0.000114083
17 *98:8 *369:8 5.3304e-05
18 *263:12 *369:10 0
19 *263:14 *369:10 0
20 *263:27 *369:10 0
21 *307:34 *369:10 0
22 *315:10 *24327:A 3.4932e-05
23 *315:10 *369:14 0.00109495
24 *315:33 *369:10 0.000116321
25 *362:47 *369:10 8.62783e-05
*RES
1 *24205:X *369:8 40.0507 
2 *369:8 *369:10 53.6396 
3 *369:10 *369:12 1.09786 
4 *369:12 *369:14 71.6611 
5 *369:14 *24327:A 40.2993 
6 *369:14 *532:DIODE 38.6214 
*END

*D_NET *370 0.000611621
*CONN
*I *24203:D I *D sky130_fd_sc_hd__dfxtp_1
*I *24204:LO O *D sky130_fd_sc_hd__conb_1
*CAP
1 *24203:D 9.26771e-06
2 *24204:LO 0.0001665
3 *370:10 0.000175768
4 *23954:C *370:10 5.67058e-05
5 *310:20 *24203:D 4.9054e-06
6 *310:74 *370:10 0
7 *356:72 *24203:D 1.64354e-05
8 *361:145 *370:10 1.32939e-05
9 *367:75 *370:10 0.000168744
*RES
1 *24204:LO *370:10 41.3557 
2 *370:10 *24203:D 38.1916 
*END

*D_NET *371 0.000341205
*CONN
*I *24152:D I *D sky130_fd_sc_hd__dfxtp_1
*I *24153:LO O *D sky130_fd_sc_hd__conb_1
*CAP
1 *24152:D 1.01088e-05
2 *24153:LO 0.000147534
3 *371:8 0.000157643
4 *24152:CLK *24152:D 1.64354e-05
5 *97:17 *371:8 0
6 *309:29 *371:8 9.48381e-06
*RES
1 *24153:LO *371:8 40.61 
2 *371:8 *24152:D 38.1916 
*END

*D_NET *372 0.00171621
*CONN
*I *23899:A1 I *D sky130_fd_sc_hd__mux2_1
*I *23990:B I *D sky130_fd_sc_hd__or3_1
*I *24229:X O *D sky130_fd_sc_hd__dlygate4sd3_1
*CAP
1 *23899:A1 0.000425113
2 *23990:B 0
3 *24229:X 0.000163172
4 *372:10 0.000588285
5 *23899:A1 *437:23 0
6 *372:10 *24248:A 0
7 *372:10 *481:10 6.6869e-05
8 *24225:A *372:10 0.000187129
9 *190:8 *23899:A1 0
10 *190:8 *372:10 0
11 *323:10 *23899:A1 8.62783e-05
12 *364:29 *23899:A1 0
13 *364:29 *372:10 0.000185434
14 *367:6 *23899:A1 1.39317e-05
*RES
1 *24229:X *372:10 42.3086 
2 *372:10 *23990:B 38 
3 *372:10 *23899:A1 43.9657 
*END

*D_NET *373 0.000793035
*CONN
*I *24150:D I *D sky130_fd_sc_hd__dfxtp_1
*I *24240:X O *D sky130_fd_sc_hd__dlygate4sd3_1
*CAP
1 *24150:D 1.00796e-05
2 *24240:X 0.000301504
3 *373:10 0.000311584
4 *373:10 *400:37 4.05309e-05
5 *23990:C *24150:D 1.74843e-05
6 *101:38 *373:10 0.000111852
7 *307:14 *373:10 0
*RES
1 *24240:X *373:10 42.5571 
2 *373:10 *24150:D 38.1916 
*END

*D_NET *374 0.00132236
*CONN
*I *23901:A1 I *D sky130_fd_sc_hd__a22o_1
*I *23988:B I *D sky130_fd_sc_hd__or3_1
*I *24251:X O *D sky130_fd_sc_hd__dlygate4sd3_1
*CAP
1 *23901:A1 0
2 *23988:B 0
3 *24251:X 0.000138654
4 *374:18 0.000218695
5 *374:8 0.000357349
6 *374:8 *24251:A 9.67842e-05
7 *23899:A0 *374:18 0.000131169
8 *24080:A2 *374:18 5.3304e-05
9 *101:38 *374:18 0.000271392
10 *104:14 *374:18 5.50106e-05
*RES
1 *24251:X *374:8 25.5479 
2 *374:8 *374:18 35.3857 
3 *374:18 *23988:B 23 
4 *374:8 *23901:A1 23 
*END

*D_NET *375 0.000513214
*CONN
*I *24151:D I *D sky130_fd_sc_hd__dfxtp_1
*I *24262:X O *D sky130_fd_sc_hd__dlygate4sd3_1
*CAP
1 *24151:D 5.48656e-06
2 *24262:X 0.000123267
3 *375:10 0.000128753
4 *39:10 *375:10 5.3304e-05
5 *102:6 *24151:D 7.10068e-06
6 *189:10 *24151:D 1.64354e-05
7 *194:16 *375:10 4.23817e-05
8 *364:29 *375:10 0.000136486
*RES
1 *24262:X *375:10 40.5271 
2 *375:10 *24151:D 38.1916 
*END

*D_NET *376 0.00278775
*CONN
*I *24076:A2 I *D sky130_fd_sc_hd__a41o_1
*I *23877:A I *D sky130_fd_sc_hd__inv_2
*I *24273:X O *D sky130_fd_sc_hd__dlygate4sd3_1
*CAP
1 *24076:A2 0.000333794
2 *23877:A 0
3 *24273:X 0.000523566
4 *376:10 0.00085736
5 *24076:A2 *24076:A1 3.7122e-06
6 *376:10 *24273:A 5.47927e-05
7 *376:10 *422:10 3.81391e-05
8 *58:10 *24076:A2 0.000213551
9 *93:8 *24076:A2 0.000140958
10 *260:12 *24076:A2 2.03764e-06
11 *309:92 *376:10 0
12 *309:103 *24076:A2 0
13 *309:103 *376:10 0
14 *360:100 *24076:A2 0.000220361
15 *360:100 *376:10 0.000302694
16 *360:113 *24076:A2 9.67842e-05
17 *362:202 *24076:A2 0
*RES
1 *24273:X *376:10 48.8957 
2 *376:10 *23877:A 38 
3 *376:10 *24076:A2 46.0579 
*END

*D_NET *377 0.000903156
*CONN
*I *24077:A1 I *D sky130_fd_sc_hd__a21oi_1
*I *24284:X O *D sky130_fd_sc_hd__dlygate4sd3_1
*CAP
1 *24077:A1 0
2 *24284:X 0.000308136
3 *377:6 0.000308136
4 *24284:A *377:6 0.000224605
5 *58:10 *377:6 6.22796e-05
*RES
1 *24284:X *377:6 28.3857 
2 *377:6 *24077:A1 23 
*END

*D_NET *378 0.000746047
*CONN
*I *24172:D I *D sky130_fd_sc_hd__dfxtp_1
*I *24295:X O *D sky130_fd_sc_hd__dlygate4sd3_1
*CAP
1 *24172:D 0.000133091
2 *24295:X 0.000166122
3 *378:8 0.000299213
4 *378:8 *455:10 1.01436e-05
5 *24172:CLK *24172:D 2.3853e-05
6 *309:103 *378:8 0
7 *362:202 *378:8 0.000113624
*RES
1 *24295:X *378:8 40.9621 
2 *378:8 *24172:D 40.0559 
*END

*D_NET *379 0.00227213
*CONN
*I *23937:A I *D sky130_fd_sc_hd__and3_1
*I *23938:B1 I *D sky130_fd_sc_hd__a21o_1
*I *24127:A1 I *D sky130_fd_sc_hd__o211a_1
*I *24306:X O *D sky130_fd_sc_hd__dlygate4sd3_1
*CAP
1 *23937:A 0.000138015
2 *23938:B1 0
3 *24127:A1 0
4 *24306:X 0
5 *379:25 0.000390338
6 *379:12 0.000190829
7 *379:4 0.000443151
8 *379:25 *458:10 3.3746e-05
9 *23937:C *23937:A 0.000113608
10 *23938:A1 *23937:A 0.000223704
11 *23941:A2 *379:12 0.000187129
12 *23941:A2 *379:25 0.000172197
13 *129:49 *23937:A 3.53115e-05
14 *140:22 *379:25 0
15 *141:23 *379:12 0
16 *141:23 *379:25 0.000161121
17 *142:8 *379:12 1.01436e-05
18 *142:8 *379:25 0
19 *289:10 *379:12 0.000103647
20 *289:10 *379:25 7.53384e-06
21 *359:53 *379:12 0
22 *359:59 *379:12 6.16531e-05
*RES
1 *24306:X *379:4 23 
2 *379:4 *379:12 34.6607 
3 *379:12 *24127:A1 23 
4 *379:4 *379:25 35.365 
5 *379:25 *23938:B1 23 
6 *379:25 *23937:A 26.9771 
*END

*D_NET *380 0.0204219
*CONN
*I *533:DIODE I *D sky130_fd_sc_hd__diode_2
*I *24328:A I *D sky130_fd_sc_hd__buf_2
*I *23893:X O *D sky130_fd_sc_hd__a21o_1
*CAP
1 *533:DIODE 5.07143e-05
2 *24328:A 9.92883e-05
3 *23893:X 0
4 *380:10 0.000150003
5 *380:8 0.00958035
6 *380:6 0.00958035
7 io_oeb[6] *380:8 0
8 io_oeb[7] *380:8 0
9 io_oeb[8] *380:8 0
10 io_oeb[9] *380:8 0
11 io_out[10] *380:8 0
12 io_out[7] *380:8 0
13 io_out[8] *380:8 0
14 io_out[9] *380:8 0
15 *327:12 *380:8 0.000961215
16 *349:8 *380:8 0
17 *352:8 *380:8 0
*RES
1 *23893:X *380:6 38 
2 *380:6 *380:8 192.767 
3 *380:8 *380:10 15 
4 *380:10 *24328:A 24.9471 
5 *380:10 *533:DIODE 23.6214 
*END

*D_NET *381 0.000793511
*CONN
*I *24193:D I *D sky130_fd_sc_hd__dfxtp_1
*I *24317:X O *D sky130_fd_sc_hd__dlygate4sd3_1
*CAP
1 *24193:D 3.94204e-05
2 *24317:X 0.000200966
3 *381:10 0.000240387
4 *381:10 *24266:A 8.26569e-05
5 *381:10 *418:23 0.000141052
6 *381:10 *419:8 0
7 *310:47 *24193:D 8.90284e-05
*RES
1 *24317:X *381:10 41.8321 
2 *381:10 *24193:D 38.9943 
*END

*D_NET *382 0.0027772
*CONN
*I *24066:B I *D sky130_fd_sc_hd__and3_1
*I *24071:A1 I *D sky130_fd_sc_hd__o211a_1
*I *24064:B1 I *D sky130_fd_sc_hd__a31o_1
*I *24230:X O *D sky130_fd_sc_hd__dlygate4sd3_1
*CAP
1 *24066:B 0
2 *24071:A1 0.000239737
3 *24064:B1 0.000293449
4 *24230:X 0.000233718
5 *382:10 0.00058756
6 *382:6 0.000288092
7 *382:6 *24294:A 0.000202663
8 *382:10 *24294:A 2.64616e-05
9 *503:DIODE *24071:A1 0
10 *24070:A *24064:B1 1.19796e-05
11 *56:10 *24071:A1 1.94693e-05
12 *236:14 *24064:B1 1.24376e-05
13 *251:25 *24064:B1 0.000125948
14 *251:25 *24071:A1 0.000262829
15 *252:8 *24071:A1 0.000185428
16 *253:8 *24064:B1 0.000138727
17 *253:14 *24064:B1 0.000148698
18 *256:10 *24064:B1 0
19 *256:10 *24071:A1 0
20 *354:231 *24071:A1 0
*RES
1 *24230:X *382:6 26.9564 
2 *382:6 *382:10 15.6214 
3 *382:10 *24064:B1 44.5871 
4 *382:10 *24071:A1 43.7171 
5 *382:6 *24066:B 23 
*END

*D_NET *383 0.000341519
*CONN
*I *24170:D I *D sky130_fd_sc_hd__dfxtp_1
*I *24231:X O *D sky130_fd_sc_hd__dlygate4sd3_1
*CAP
1 *24170:D 7.53811e-05
2 *24231:X 9.53785e-05
3 *383:8 0.00017076
*RES
1 *24231:X *383:8 39.5536 
2 *383:8 *24170:D 39.1445 
*END

*D_NET *384 0.00381591
*CONN
*I *23969:A1 I *D sky130_fd_sc_hd__a22o_1
*I *23962:B I *D sky130_fd_sc_hd__nand4_1
*I *23960:A I *D sky130_fd_sc_hd__and2_1
*I *24002:A2 I *D sky130_fd_sc_hd__o211a_1
*I *24232:X O *D sky130_fd_sc_hd__dlygate4sd3_1
*CAP
1 *23969:A1 0.000120464
2 *23962:B 0.000152324
3 *23960:A 2.79004e-05
4 *24002:A2 9.97868e-05
5 *24232:X 0
6 *384:30 0.000584702
7 *384:19 0.000589655
8 *384:4 0.000349627
9 *23969:A1 *23961:A 9.84851e-05
10 *384:19 *443:8 3.5664e-05
11 *384:19 *444:19 0
12 *23962:C *23962:B 9.62764e-05
13 *23962:C *23969:A1 3.98859e-05
14 *23962:C *384:30 1.97329e-05
15 *23969:B1 *23969:A1 5.50106e-05
16 *24002:B1 *24002:A2 5.23699e-05
17 *48:10 *24002:A2 0.000141052
18 *48:10 *384:19 0.00045811
19 *89:61 *24002:A2 2.90712e-05
20 *89:76 *24002:A2 0.000266265
21 *89:76 *384:19 0.000130423
22 *105:23 *23969:A1 5.97612e-05
23 *105:23 *384:19 4.6318e-06
24 *105:23 *384:30 0.000223583
25 *353:42 *384:19 0
26 *353:42 *384:30 0
27 *353:80 *384:30 0
28 *357:27 *24002:A2 0.000126114
29 *365:59 *23960:A 5.50106e-05
*RES
1 *24232:X *384:4 23 
2 *384:4 *24002:A2 26.9771 
3 *384:4 *384:19 22.0014 
4 *384:19 *23960:A 38.6214 
5 *384:19 *384:30 6.48357 
6 *384:30 *23962:B 40.0507 
7 *384:30 *23969:A1 41.0036 
*END

*D_NET *385 0.000676755
*CONN
*I *24162:D I *D sky130_fd_sc_hd__dfxtp_1
*I *24233:X O *D sky130_fd_sc_hd__dlygate4sd3_1
*CAP
1 *24162:D 1.31802e-05
2 *24233:X 0.000145783
3 *385:10 0.000158963
4 *105:10 *385:10 0.000167443
5 *105:23 *385:10 1.94812e-05
6 *357:10 *385:10 0.000171906
*RES
1 *24233:X *385:10 41.3557 
2 *385:10 *24162:D 38.1916 
*END

*D_NET *386 0.0028501
*CONN
*I *23975:B1 I *D sky130_fd_sc_hd__a21oi_1
*I *23970:A I *D sky130_fd_sc_hd__and3_1
*I *24104:A1 I *D sky130_fd_sc_hd__o211a_1
*I *24234:X O *D sky130_fd_sc_hd__dlygate4sd3_1
*CAP
1 *23975:B1 0
2 *23970:A 1.71566e-05
3 *24104:A1 0
4 *24234:X 8.83185e-05
5 *386:26 0.000519875
6 *386:18 0.000768914
7 *386:12 0.000269035
8 *386:8 0.000125471
9 *23970:C *23970:A 5.90675e-06
10 *23970:C *386:18 3.22076e-05
11 *23975:A2 *386:18 0.000111395
12 *24104:A2 *386:26 1.14452e-05
13 *105:23 *386:26 0.000384805
14 *164:25 *386:18 8.06804e-06
15 *164:38 *386:12 9.67842e-05
16 *164:38 *386:18 9.41704e-05
17 *170:8 *386:8 0
18 *171:12 *386:18 4.19743e-05
19 *171:12 *386:26 9.91798e-05
20 *177:8 *386:8 5.21127e-05
21 *363:34 *386:26 0.000123282
*RES
1 *24234:X *386:8 39.5536 
2 *386:8 *386:12 16.0979 
3 *386:12 *386:18 4.59857 
4 *386:18 *386:26 39.9843 
5 *386:26 *24104:A1 23 
6 *386:18 *23970:A 23.4971 
7 *386:12 *23975:B1 23 
*END

*D_NET *387 0.00229143
*CONN
*I *24185:D I *D sky130_fd_sc_hd__dfxtp_1
*I *24235:X O *D sky130_fd_sc_hd__dlygate4sd3_1
*CAP
1 *24185:D 0
2 *24235:X 4.87396e-05
3 *387:12 0.000793697
4 *387:8 0.000842436
5 *387:12 *24022:A1 5.41288e-05
6 *387:12 *24252:A 1.94812e-05
7 *387:12 *404:6 4.36705e-05
8 *24022:A2 *387:12 7.53384e-06
9 *106:16 *387:8 7.76364e-06
10 *210:10 *387:8 0.000111852
11 *213:14 *387:8 8.85189e-05
12 *360:30 *387:12 0.000273612
*RES
1 *24235:X *387:8 39.5536 
2 *387:8 *387:12 28.5316 
3 *387:12 *24185:D 23 
*END

*D_NET *388 0.00511501
*CONN
*I *23968:B1_N I *D sky130_fd_sc_hd__o21bai_1
*I *23963:C_N I *D sky130_fd_sc_hd__or3b_1
*I *24107:A1 I *D sky130_fd_sc_hd__o211a_1
*I *24236:X O *D sky130_fd_sc_hd__dlygate4sd3_1
*CAP
1 *23968:B1_N 0
2 *23963:C_N 0
3 *24107:A1 0
4 *24236:X 0.000362108
5 *388:33 0.000282635
6 *388:25 0.000655412
7 *388:14 0.0007699
8 *388:6 0.00150478
9 *388:25 *464:10 0
10 *23968:A2 *388:33 7.88926e-05
11 *23979:B1 *388:6 0.000125488
12 *23979:B1 *388:14 0.000269545
13 *24103:A1 *388:14 0
14 *24105:B *388:14 0
15 *105:42 *388:14 0.000394564
16 *165:8 *388:33 0
17 *167:22 *388:6 0.000143655
18 *170:8 *388:25 0.000124678
19 *170:8 *388:33 1.19692e-05
20 *173:8 *388:14 0
21 *173:8 *388:25 8.62783e-05
22 *174:8 *388:25 0
23 *175:10 *388:14 8.94394e-05
24 *178:23 *388:14 9.03157e-05
25 *179:23 *388:33 0
26 *181:8 *388:6 4.73234e-05
27 *354:90 *388:14 0
28 *355:239 *388:14 7.80251e-05
*RES
1 *24236:X *388:6 28.8621 
2 *388:6 *388:14 44.6864 
3 *388:14 *24107:A1 23 
4 *388:6 *388:25 36.8357 
5 *388:25 *388:33 34.205 
6 *388:33 *23963:C_N 23 
7 *388:25 *23968:B1_N 23 
*END

*D_NET *389 0.000256544
*CONN
*I *24186:D I *D sky130_fd_sc_hd__dfxtp_1
*I *24237:X O *D sky130_fd_sc_hd__dlygate4sd3_1
*CAP
1 *24186:D 8.22177e-05
2 *24237:X 8.22177e-05
3 *24186:CLK *24186:D 5.67058e-05
4 *363:107 *24186:D 3.54023e-05
*RES
1 *24237:X *24186:D 47.8902 
*END

*D_NET *390 0.004319
*CONN
*I *24133:A1 I *D sky130_fd_sc_hd__o211a_1
*I *23923:B1 I *D sky130_fd_sc_hd__a21o_1
*I *23918:A I *D sky130_fd_sc_hd__nand3_1
*I *24238:X O *D sky130_fd_sc_hd__dlygate4sd3_1
*CAP
1 *24133:A1 0
2 *23923:B1 4.24211e-05
3 *23918:A 0
4 *24238:X 0.000310288
5 *390:36 0.000954992
6 *390:19 0.00113369
7 *390:10 0.000446561
8 *23923:A2 *390:19 0
9 *23933:A *390:36 0.000136256
10 *23933:B *390:36 4.18032e-05
11 *24131:A1 *390:36 7.23925e-05
12 *24131:A2 *390:36 0.00042553
13 *24133:C1 *390:36 6.32658e-05
14 *24137:A1 *390:36 0
15 *24137:A2 *390:36 0.000150242
16 *94:26 *390:10 5.41288e-05
17 *110:23 *390:10 5.50106e-05
18 *111:14 *390:36 0
19 *118:34 *390:10 3.22118e-05
20 *120:10 *390:10 0
21 *120:10 *390:19 0
22 *121:8 *390:19 8.51329e-05
23 *121:8 *390:36 7.03869e-05
24 *126:10 *390:36 6.4393e-05
25 *135:8 *390:36 9.21347e-06
26 *135:19 *390:36 6.43253e-05
27 *137:8 *390:36 8.62783e-05
28 *145:23 *390:36 2.04774e-05
29 *201:51 *390:36 0
30 *294:8 *390:36 0
31 *355:118 *390:10 0
32 *355:118 *390:19 0
33 *355:118 *390:36 0
*RES
1 *24238:X *390:10 42.9093 
2 *390:10 *23918:A 38 
3 *390:10 *390:19 3.31429 
4 *390:19 *23923:B1 38.6214 
5 *390:19 *390:36 36.5429 
6 *390:36 *24133:A1 23 
*END

*D_NET *391 0.0124212
*CONN
*I *24329:A I *D sky130_fd_sc_hd__buf_2
*I *24206:X O *D sky130_fd_sc_hd__buf_1
*CAP
1 *24329:A 3.78039e-05
2 *24206:X 0.00013386
3 *391:10 0.00197236
4 *391:8 0.00206842
5 *391:10 *402:10 0.00077382
6 *315:10 *391:10 0.00117853
7 *315:18 *391:10 0.00238017
8 *315:33 *391:10 0.000354788
9 *369:10 *391:10 0.00121659
10 *369:14 *391:10 0.00230485
*RES
1 *24206:X *391:8 39.5743 
2 *391:8 *391:10 80.7857 
3 *391:10 *24329:A 38.6214 
*END

*D_NET *392 0.000498638
*CONN
*I *24195:D I *D sky130_fd_sc_hd__dfxtp_1
*I *24239:X O *D sky130_fd_sc_hd__dlygate4sd3_1
*CAP
1 *24195:D 0.000130325
2 *24239:X 5.94923e-05
3 *392:8 0.000189817
4 *24195:CLK *24195:D 3.27248e-05
5 *310:30 *392:8 8.62783e-05
*RES
1 *24239:X *392:8 39.2014 
2 *392:8 *24195:D 40.0559 
*END

*D_NET *393 0.00334187
*CONN
*I *23977:A I *D sky130_fd_sc_hd__nand2_1
*I *24100:B1 I *D sky130_fd_sc_hd__a31o_1
*I *24241:X O *D sky130_fd_sc_hd__dlygate4sd3_1
*CAP
1 *23977:A 0.000152493
2 *24100:B1 0
3 *24241:X 0
4 *393:16 0.000330064
5 *393:6 0.000482557
6 *393:16 *437:23 5.50049e-05
7 *24242:A *23977:A 0.000342394
8 *24242:A *393:16 0.000222113
9 *107:44 *393:16 2.80512e-05
10 *162:18 *23977:A 0.000351608
11 *162:18 *393:16 0.0008659
12 *179:8 *23977:A 2.64616e-05
13 *273:8 *393:16 0.000485227
*RES
1 *24241:X *393:6 38 
2 *393:6 *393:16 27.2007 
3 *393:16 *24100:B1 23 
4 *393:6 *23977:A 43.3443 
*END

*D_NET *394 0.0015082
*CONN
*I *24101:C1 I *D sky130_fd_sc_hd__o211a_1
*I *24242:X O *D sky130_fd_sc_hd__dlygate4sd3_1
*CAP
1 *24101:C1 4.13136e-05
2 *24242:X 0.000414344
3 *394:10 0.000455658
4 *394:10 *443:8 0.000140949
5 *394:10 *444:19 0
6 *24101:B1 *24101:C1 9.84794e-05
7 *353:42 *394:10 0.000346206
8 *355:194 *394:10 1.12487e-05
*RES
1 *24242:X *394:10 45.6021 
2 *394:10 *24101:C1 39.0979 
*END

*D_NET *395 0.00135315
*CONN
*I *24184:D I *D sky130_fd_sc_hd__dfxtp_1
*I *24243:X O *D sky130_fd_sc_hd__dlygate4sd3_1
*CAP
1 *24184:D 0
2 *24243:X 0.000151386
3 *395:6 0.000151386
4 *395:6 *406:50 0.000251701
5 *24164:CLK *395:6 0.000125581
6 *65:10 *395:6 0.000359332
7 *104:50 *395:6 5.50049e-05
8 *307:146 *395:6 7.42621e-05
9 *307:150 *395:6 0.000184497
*RES
1 *24243:X *395:6 30.1309 
2 *395:6 *24184:D 23 
*END

*D_NET *396 0.00415084
*CONN
*I *24130:A1 I *D sky130_fd_sc_hd__o211a_1
*I *23930:A I *D sky130_fd_sc_hd__and3_1
*I *23931:A1 I *D sky130_fd_sc_hd__a21bo_1
*I *23935:B1 I *D sky130_fd_sc_hd__a21oi_1
*I *24244:X O *D sky130_fd_sc_hd__dlygate4sd3_1
*CAP
1 *24130:A1 0.000472416
2 *23930:A 0.000154738
3 *23931:A1 0
4 *23935:B1 0.000204086
5 *24244:X 9.53785e-05
6 *396:27 0.000154738
7 *396:25 0.000656749
8 *396:12 0.000556242
9 *396:8 0.000263201
10 *23929:A2 *23935:B1 1.40958e-05
11 *23929:A2 *396:12 3.7122e-06
12 *23930:B *23930:A 0.00012377
13 *23930:C *23930:A 0.000113616
14 *23935:A2 *23935:B1 9.5877e-05
15 *23935:A2 *396:25 8.9458e-05
16 *24128:A1 *24130:A1 0
17 *118:27 *396:8 0
18 *118:27 *396:25 3.70187e-05
19 *129:38 *396:25 1.12487e-05
20 *132:23 *23930:A 5.3304e-05
21 *132:23 *24130:A1 1.22803e-05
22 *132:23 *396:25 0.000137788
23 *138:27 *23930:A 5.50049e-05
24 *138:27 *24130:A1 0.000379413
25 *138:27 *396:25 1.22906e-05
26 *201:27 *24130:A1 0.000227208
27 *355:118 *396:8 0
28 *357:131 *24130:A1 0.000227208
29 *367:62 *24130:A1 0
*RES
1 *24244:X *396:8 39.5536 
2 *396:8 *396:12 17.5271 
3 *396:12 *23935:B1 26.0036 
4 *396:12 *396:25 18.9357 
5 *396:25 *396:27 15 
6 *396:27 *23931:A1 23 
7 *396:27 *23930:A 27.8057 
8 *396:25 *24130:A1 49.1236 
*END

*D_NET *397 0.000318701
*CONN
*I *24194:D I *D sky130_fd_sc_hd__dfxtp_1
*I *24245:X O *D sky130_fd_sc_hd__dlygate4sd3_1
*CAP
1 *24194:D 9.59011e-05
2 *24245:X 9.59011e-05
3 *310:39 *24194:D 0.000126899
*RES
1 *24245:X *24194:D 48.5893 
*END

*D_NET *398 0.00960397
*CONN
*I *23999:B I *D sky130_fd_sc_hd__nand2_1
*I *23907:A I *D sky130_fd_sc_hd__nand4_1
*I *24148:A1 I *D sky130_fd_sc_hd__a21oi_1
*I *23905:A I *D sky130_fd_sc_hd__and2_1
*I *24144:B2 I *D sky130_fd_sc_hd__a32o_1
*I *24246:X O *D sky130_fd_sc_hd__dlygate4sd3_1
*CAP
1 *23999:B 0
2 *23907:A 0
3 *24148:A1 5.43738e-05
4 *23905:A 0
5 *24144:B2 0.0002367
6 *24246:X 4.55529e-05
7 *398:76 0.000867725
8 *398:63 0.000815681
9 *398:48 0.00106395
10 *398:35 0.000720555
11 *398:10 0.000979766
12 *398:8 0.00112969
13 *24144:B2 *434:31 6.72664e-05
14 *24144:B2 *434:42 9.16362e-05
15 *24144:B2 *434:50 0
16 *398:8 *441:10 2.93747e-05
17 *398:10 *434:50 0
18 *398:35 *434:42 0.000104848
19 *398:35 *434:63 0.000390679
20 *398:76 *23936:B2 5.56279e-05
21 *398:76 *432:30 0.000405808
22 *398:76 *432:41 1.72202e-05
23 *398:76 *434:50 0
24 *23936:A2 *398:76 0.000315852
25 *24147:A1 *24148:A1 2.64616e-05
26 *24147:A1 *398:63 2.18506e-05
27 *24149:A *398:48 6.17437e-06
28 *24149:C *398:48 2.43944e-05
29 *24200:CLK *24144:B2 1.01436e-05
30 *24200:D *398:35 0.000102732
31 *86:8 *398:10 0
32 *87:10 *398:48 6.33511e-05
33 *107:61 *398:10 7.80354e-05
34 *107:61 *398:76 0.00024563
35 *107:73 *24144:B2 9.29333e-05
36 *107:73 *398:35 8.48502e-06
37 *107:73 *398:48 0.00022109
38 *108:8 *398:48 6.48142e-05
39 *108:28 *398:48 0.000110913
40 *109:12 *398:63 0
41 *129:8 *398:76 0
42 *195:10 *398:76 9.91798e-05
43 *301:8 *24144:B2 1.14452e-05
44 *301:8 *398:10 0.000127272
45 *303:6 *398:63 0.000438457
46 *326:33 *398:48 7.76364e-06
47 *326:33 *398:63 0
48 *326:46 *398:63 0.000203929
49 *343:23 *24144:B2 0
50 *343:23 *398:76 0
51 *364:74 *398:76 0.000166079
52 *364:95 *398:48 5.50049e-05
53 *366:55 *24144:B2 2.55176e-05
*RES
1 *24246:X *398:8 38.6214 
2 *398:8 *398:10 4.01857 
3 *398:10 *24144:B2 43.4479 
4 *398:10 *398:35 24.2593 
5 *398:35 *23905:A 23 
6 *398:35 *398:48 34.785 
7 *398:48 *24148:A1 23.6214 
8 *398:48 *398:63 44.6864 
9 *398:63 *23907:A 23 
10 *398:8 *398:76 36.4186 
11 *398:76 *23999:B 23 
*END

*D_NET *399 0.000494625
*CONN
*I *24201:D I *D sky130_fd_sc_hd__dfxtp_1
*I *24247:X O *D sky130_fd_sc_hd__dlygate4sd3_1
*CAP
1 *24201:D 1.31802e-05
2 *24247:X 0.000178992
3 *399:10 0.000192173
4 *308:94 *399:10 0.00011028
*RES
1 *24247:X *399:10 41.3557 
2 *399:10 *24201:D 38.1916 
*END

*D_NET *400 0.0173761
*CONN
*I *23988:A I *D sky130_fd_sc_hd__or3_1
*I *24096:A I *D sky130_fd_sc_hd__and3_1
*I *23903:A I *D sky130_fd_sc_hd__nand2_1
*I *23902:A I *D sky130_fd_sc_hd__and2_1
*I *23879:A I *D sky130_fd_sc_hd__nor2_4
*I *24006:B I *D sky130_fd_sc_hd__and2b_1
*I *24007:C_N I *D sky130_fd_sc_hd__or3b_1
*I *23896:A I *D sky130_fd_sc_hd__nor2_1
*I *23990:A I *D sky130_fd_sc_hd__or3_1
*I *24248:X O *D sky130_fd_sc_hd__dlygate4sd3_1
*CAP
1 *23988:A 0
2 *24096:A 0
3 *23903:A 2.59497e-05
4 *23902:A 4.68028e-05
5 *23879:A 0
6 *24006:B 6.98031e-05
7 *24007:C_N 0.000131891
8 *23896:A 0
9 *23990:A 0.000193212
10 *24248:X 0.000431238
11 *400:135 0.000557645
12 *400:127 0.00100446
13 *400:110 0.000782983
14 *400:97 0.000784032
15 *400:86 0.000638142
16 *400:69 0.000976655
17 *400:56 0.000888904
18 *400:43 0.000151999
19 *400:37 0.00121613
20 *400:31 0.00104769
21 *400:27 0.000361363
22 *400:10 0.000940953
23 *24007:C_N *24316:A 0.000318946
24 *24007:C_N *423:6 0.000148185
25 *24007:C_N *423:16 0.000100069
26 *400:10 *24248:A 0.000216721
27 *400:10 *437:23 0.000178773
28 *400:27 *437:23 0.000374011
29 *400:31 *23988:C 5.67058e-05
30 *400:56 *24316:A 0
31 *400:69 *423:25 0
32 *400:97 *425:21 0.000354769
33 *400:97 *427:23 6.93214e-05
34 *400:110 *427:23 5.86328e-05
35 *400:127 *406:8 4.21378e-05
36 *400:127 *406:27 3.53051e-05
37 *400:127 *437:23 0
38 *508:DIODE *400:86 3.66555e-05
39 *23880:A *400:86 4.07902e-05
40 *23899:A0 *400:27 5.19255e-05
41 *23990:C *23990:A 0.000268074
42 *24080:A2 *24007:C_N 4.68377e-05
43 *24080:A2 *400:27 0.0002922
44 *24080:A2 *400:31 0.00014196
45 *24087:B *400:86 0.000139647
46 *24096:C *400:135 6.04112e-05
47 *24122:A3 *400:127 5.50049e-05
48 *24175:CLK *400:37 5.12254e-05
49 *24175:CLK *400:43 9.3813e-05
50 *24175:D *400:56 5.65198e-05
51 *24254:A *23903:A 3.22879e-05
52 *24305:A *400:135 4.06849e-05
53 *61:8 *400:43 0
54 *90:83 *400:10 0.000161756
55 *99:67 *23903:A 9.84794e-05
56 *99:67 *400:127 8.17328e-05
57 *99:90 *400:127 0.000180218
58 *100:14 *400:43 0
59 *101:38 *400:10 0
60 *101:38 *400:27 0
61 *101:38 *400:37 0
62 *101:38 *400:97 0
63 *101:51 *23990:A 1.5769e-05
64 *102:14 *400:27 2.71291e-05
65 *103:27 *24006:B 0.000230776
66 *104:14 *400:97 0.000277666
67 *104:14 *400:110 0.000349395
68 *104:21 *400:110 0.000110262
69 *104:40 *400:110 0.000155068
70 *104:40 *400:135 0.000139657
71 *105:10 *400:127 1.22906e-05
72 *106:29 *23903:A 1.40958e-05
73 *106:29 *400:127 4.2062e-05
74 *107:44 *400:127 0.000187986
75 *189:10 *400:27 9.4713e-05
76 *199:10 *24006:B 3.7395e-05
77 *199:10 *400:86 0.000219882
78 *304:8 *400:86 1.5769e-05
79 *307:10 *400:97 2.96805e-05
80 *307:14 *400:37 5.26308e-05
81 *307:14 *400:97 0.000210571
82 *307:28 *400:43 6.07611e-06
83 *307:103 *400:110 0
84 *312:28 *400:69 0
85 *312:39 *400:110 0
86 *312:39 *400:135 0
87 *323:10 *23990:A 1.32314e-05
88 *337:8 *400:135 4.08641e-05
89 *339:8 *400:135 6.7177e-06
90 *357:27 *400:127 0.000244507
91 *362:91 *400:86 0
92 *368:62 *400:43 0
93 *368:62 *400:56 0.000187996
94 *368:62 *400:69 0.00024524
95 *368:62 *400:86 6.26356e-05
96 *368:80 *400:86 0.000171848
97 *373:10 *400:37 4.05309e-05
*RES
1 *24248:X *400:10 46.4307 
2 *400:10 *23990:A 41.9771 
3 *400:10 *400:27 23.555 
4 *400:27 *400:31 16.5743 
5 *400:31 *400:37 25.0257 
6 *400:37 *400:43 33.3143 
7 *400:43 *23896:A 23 
8 *400:37 *400:56 22.0636 
9 *400:56 *24007:C_N 42.93 
10 *400:56 *400:69 4.72286 
11 *400:69 *24006:B 40.5271 
12 *400:69 *400:86 28.92 
13 *400:86 *23879:A 23 
14 *400:31 *400:97 12.5321 
15 *400:97 *23902:A 38.6214 
16 *400:97 *400:110 23.2443 
17 *400:110 *23903:A 24.0979 
18 *400:110 *400:127 39.6736 
19 *400:127 *400:135 39.6736 
20 *400:135 *24096:A 23 
21 *400:27 *23988:A 23 
*END

*D_NET *401 0.00101095
*CONN
*I *23991:B1 I *D sky130_fd_sc_hd__o211a_1
*I *24249:X O *D sky130_fd_sc_hd__dlygate4sd3_1
*CAP
1 *23991:B1 6.08844e-05
2 *24249:X 0.000214086
3 *401:10 0.00027497
4 *23991:A2 *23991:B1 4.37033e-05
5 *24225:A *401:10 0.00010018
6 *90:83 *23991:B1 0.000159598
7 *364:10 *401:10 0.000110922
8 *364:29 *401:10 4.66047e-05
*RES
1 *24249:X *401:10 41.6043 
2 *401:10 *23991:B1 40.0714 
*END

*D_NET *402 0.00693806
*CONN
*I *24330:A I *D sky130_fd_sc_hd__buf_2
*I *23883:X O *D sky130_fd_sc_hd__o22a_1
*CAP
1 *24330:A 4.70984e-05
2 *23883:X 0.000125693
3 *402:10 0.00215137
4 *402:8 0.00222997
5 *402:10 *413:10 0.00014411
6 *23882:A *402:10 0
7 *24205:A *402:10 0
8 *15:10 *402:10 0
9 *27:10 *402:10 0
10 *304:10 *402:10 0
11 *314:10 *402:10 0
12 *315:18 *402:10 0.00146599
13 *362:47 *402:10 0
14 *369:10 *402:10 0
15 *391:10 *402:10 0.00077382
*RES
1 *23883:X *402:8 39.5743 
2 *402:8 *402:10 52.9664 
3 *402:10 *24330:A 38.6214 
*END

*D_NET *403 0.000591995
*CONN
*I *24157:D I *D sky130_fd_sc_hd__dfxtp_1
*I *24250:X O *D sky130_fd_sc_hd__dlygate4sd3_1
*CAP
1 *24157:D 7.34139e-05
2 *24250:X 9.96772e-05
3 *403:8 0.000173091
4 *403:8 *24248:A 0
5 *496:DIODE *403:8 5.61311e-05
6 *308:37 *24157:D 0.000189681
*RES
1 *24250:X *403:8 40.2579 
2 *403:8 *24157:D 40.0973 
*END

*D_NET *404 0.00287798
*CONN
*I *24022:A1 I *D sky130_fd_sc_hd__a21bo_1
*I *24016:B1 I *D sky130_fd_sc_hd__a21oi_1
*I *24015:A I *D sky130_fd_sc_hd__and3_1
*I *24021:A1 I *D sky130_fd_sc_hd__o211a_1
*I *24252:X O *D sky130_fd_sc_hd__dlygate4sd3_1
*CAP
1 *24022:A1 9.01348e-05
2 *24016:B1 5.95874e-06
3 *24015:A 0
4 *24021:A1 0.000488296
5 *24252:X 0.000214537
6 *404:29 2.09391e-05
7 *404:14 0.000676999
8 *404:6 0.000478395
9 *24021:A1 *446:42 5.11935e-06
10 *24018:C_N *24021:A1 0
11 *51:10 *24021:A1 4.9662e-05
12 *106:16 *24021:A1 0
13 *206:8 *24021:A1 0
14 *206:14 *24016:B1 5.67058e-05
15 *206:14 *404:29 5.50106e-05
16 *206:27 *24021:A1 1.01436e-05
17 *206:27 *404:14 3.9325e-05
18 *208:25 *404:14 0.000108681
19 *210:8 *24016:B1 4.34745e-05
20 *210:8 *404:29 5.50106e-05
21 *210:10 *24021:A1 9.48381e-06
22 *210:10 *404:14 8.46249e-05
23 *357:76 *24021:A1 0.000264559
24 *365:95 *24021:A1 1.29773e-05
25 *365:97 *24021:A1 1.01436e-05
26 *387:12 *24022:A1 5.41288e-05
27 *387:12 *404:6 4.36705e-05
*RES
1 *24252:X *404:6 25.5271 
2 *404:6 *404:14 18.3764 
3 *404:14 *24021:A1 47.5493 
4 *404:14 *404:29 15.6214 
5 *404:29 *24015:A 23 
6 *404:29 *24016:B1 23.6214 
7 *404:6 *24022:A1 24.9471 
*END

*D_NET *405 0.000794616
*CONN
*I *24165:D I *D sky130_fd_sc_hd__dfxtp_1
*I *24253:X O *D sky130_fd_sc_hd__dlygate4sd3_1
*CAP
1 *24165:D 0.000132474
2 *24253:X 7.9875e-05
3 *405:8 0.000212349
4 *24165:D *449:8 1.06063e-06
5 *24165:CLK *24165:D 0.000121046
6 *211:10 *405:8 0.000169683
7 *357:76 *24165:D 0
8 *362:170 *405:8 7.8128e-05
*RES
1 *24253:X *405:8 40.2579 
2 *405:8 *24165:D 40.5893 
*END

*D_NET *406 0.0124381
*CONN
*I *24003:A I *D sky130_fd_sc_hd__or2_1
*I *23999:A I *D sky130_fd_sc_hd__nand2_1
*I *24095:S I *D sky130_fd_sc_hd__mux2_1
*I *23873:A I *D sky130_fd_sc_hd__inv_2
*I *23900:A I *D sky130_fd_sc_hd__nor2_1
*I *23992:A1 I *D sky130_fd_sc_hd__a21oi_1
*I *24254:X O *D sky130_fd_sc_hd__dlygate4sd3_1
*CAP
1 *24003:A 0
2 *23999:A 0.000161483
3 *24095:S 0
4 *23873:A 0
5 *23900:A 0.000294871
6 *23992:A1 8.74122e-05
7 *24254:X 0
8 *406:77 0.000519738
9 *406:64 0.00128382
10 *406:50 0.000893446
11 *406:31 0.00137968
12 *406:27 0.000741246
13 *406:8 0.000700103
14 *406:4 0.000665399
15 *406:50 *24012:A 9.58714e-05
16 *406:64 *23940:A 1.41077e-05
17 *406:64 *24122:B1 0.00035411
18 *406:64 *439:25 1.40958e-05
19 *24095:A1 *406:27 5.9925e-05
20 *24095:A1 *406:31 4.06849e-05
21 *24096:B *23900:A 6.53505e-05
22 *24096:B *406:50 7.8399e-05
23 *24122:A2 *406:64 2.47321e-05
24 *24122:A3 *406:8 5.3304e-05
25 *24122:A3 *406:64 0.00089281
26 *24164:CLK *406:50 0.000437159
27 *24180:D *406:27 1.86404e-05
28 *78:10 *406:77 0.000123256
29 *89:80 *23999:A 0.000240426
30 *89:80 *406:77 0.000663315
31 *89:159 *406:77 0
32 *99:59 *23900:A 9.21347e-06
33 *99:75 *23992:A1 0.000138718
34 *104:40 *23992:A1 3.97399e-05
35 *104:40 *406:27 4.60263e-05
36 *104:50 *406:50 0.000141869
37 *105:10 *23992:A1 0.000215791
38 *105:10 *406:27 0.000108681
39 *106:12 *23900:A 7.03766e-05
40 *106:12 *406:50 0.00029764
41 *106:29 *406:8 0.000135037
42 *106:29 *406:64 0.000306338
43 *143:10 *406:77 0
44 *192:34 *406:77 0.000191546
45 *272:10 *406:31 3.71369e-05
46 *272:10 *406:50 4.08641e-05
47 *288:8 *406:77 0
48 *307:122 *23900:A 0.000159652
49 *307:144 *406:50 0
50 *324:10 *23900:A 0
51 *325:8 *23900:A 0
52 *355:55 *406:64 0.000224605
53 *355:67 *23999:A 4.23714e-05
54 *395:6 *406:50 0.000251701
55 *400:127 *406:8 4.21378e-05
56 *400:127 *406:27 3.53051e-05
*RES
1 *24254:X *406:4 23 
2 *406:4 *406:8 16.5743 
3 *406:8 *23992:A1 40.9621 
4 *406:8 *406:27 23.8864 
5 *406:27 *406:31 18.48 
6 *406:31 *23900:A 43.4271 
7 *406:31 *406:50 33.56 
8 *406:50 *23873:A 23 
9 *406:27 *24095:S 23 
10 *406:4 *406:64 30.3907 
11 *406:64 *23999:A 41.3143 
12 *406:64 *406:77 28.8786 
13 *406:77 *24003:A 23 
*END

*D_NET *407 0.000559998
*CONN
*I *24161:D I *D sky130_fd_sc_hd__dfxtp_1
*I *24255:X O *D sky130_fd_sc_hd__dlygate4sd3_1
*CAP
1 *24161:D 1.38132e-05
2 *24255:X 0.00015409
3 *407:10 0.000167903
4 *105:59 *24161:D 4.9054e-06
5 *192:34 *407:10 0.000164282
6 *308:19 *407:10 0
7 *308:25 *407:10 0
8 *364:37 *407:10 5.50049e-05
*RES
1 *24255:X *407:10 40.8793 
2 *407:10 *24161:D 38.1916 
*END

*D_NET *408 0.00237074
*CONN
*I *24010:C I *D sky130_fd_sc_hd__and3_1
*I *24005:B1 I *D sky130_fd_sc_hd__a31o_1
*I *24256:X O *D sky130_fd_sc_hd__dlygate4sd3_1
*CAP
1 *24010:C 0.000293202
2 *24005:B1 0.000320279
3 *24256:X 5.85644e-05
4 *408:8 0.000672045
5 *408:8 *446:14 4.38519e-06
6 *408:8 *446:29 8.91468e-07
7 *24005:A3 *24005:B1 0
8 *24216:A *24010:C 6.33553e-05
9 *24257:A *24005:B1 0.000429611
10 *24257:A *24010:C 0.000139647
11 *198:8 *24005:B1 0.000103405
12 *357:48 *24005:B1 0
13 *357:48 *24010:C 0
14 *357:76 *24010:C 0
15 *365:97 *24010:C 3.39231e-05
16 *365:103 *24005:B1 0.000207594
17 *365:103 *24010:C 4.38375e-05
*RES
1 *24256:X *408:8 38.6214 
2 *408:8 *24005:B1 46.5343 
3 *408:8 *24010:C 44.1314 
*END

*D_NET *409 0.00146029
*CONN
*I *24012:A I *D sky130_fd_sc_hd__and3_1
*I *24257:X O *D sky130_fd_sc_hd__dlygate4sd3_1
*CAP
1 *24012:A 0.000126445
2 *24257:X 0.000156435
3 *409:8 0.000282881
4 *409:8 *471:10 0.000138727
5 *24005:A3 *409:8 4.85126e-05
6 *24011:B *409:8 0.000116314
7 *24164:CLK *24012:A 7.42621e-05
8 *90:159 *409:8 0.000400905
9 *357:48 *409:8 1.99391e-05
10 *406:50 *24012:A 9.58714e-05
*RES
1 *24257:X *409:8 43.4271 
2 *409:8 *24012:A 40.5271 
*END

*D_NET *410 0.000721756
*CONN
*I *24164:D I *D sky130_fd_sc_hd__dfxtp_1
*I *24258:X O *D sky130_fd_sc_hd__dlygate4sd3_1
*CAP
1 *24164:D 0.000102895
2 *24258:X 5.89925e-05
3 *410:8 0.000161888
4 *24164:CLK *24164:D 6.17437e-06
5 *313:12 *410:8 0.000194327
6 *362:170 *410:8 0.000197479
*RES
1 *24258:X *410:8 40.61 
2 *410:8 *24164:D 39.4137 
*END

*D_NET *411 0.0052915
*CONN
*I *24097:A1 I *D sky130_fd_sc_hd__o21a_1
*I *24035:A1 I *D sky130_fd_sc_hd__a21oi_1
*I *24024:A I *D sky130_fd_sc_hd__nand4_1
*I *24259:X O *D sky130_fd_sc_hd__dlygate4sd3_1
*CAP
1 *24097:A1 0
2 *24035:A1 0
3 *24024:A 0
4 *24259:X 0.000179834
5 *411:38 0.000189573
6 *411:27 0.000783084
7 *411:12 0.00164834
8 *411:6 0.00123466
9 *411:6 *447:6 5.67058e-05
10 *411:12 *24024:B 1.83667e-05
11 *411:12 *444:76 0.00040529
12 *411:12 *444:84 0
13 *411:27 *24024:B 3.72639e-05
14 *411:27 *444:84 0
15 *411:38 *447:10 0
16 *24025:C *411:27 4.67488e-05
17 *24030:A1 *411:27 6.66707e-05
18 *24035:A2 *411:27 4.58601e-05
19 *24037:A2 *411:27 0.000118143
20 *24037:B1_N *411:27 6.82611e-05
21 *24181:CLK *411:38 0
22 *24181:D *411:12 2.72257e-05
23 *67:8 *411:38 0
24 *106:12 *411:12 0
25 *106:16 *411:12 0
26 *214:29 *411:27 0.000199252
27 *215:10 *411:27 5.0899e-05
28 *216:12 *411:27 8.62876e-05
29 *218:43 *411:27 2.48107e-05
30 *357:92 *411:38 4.21594e-06
31 *365:59 *411:38 0
32 *365:68 *411:38 0
33 *365:83 *411:38 0
*RES
1 *24259:X *411:6 25.5271 
2 *411:6 *411:12 31.6543 
3 *411:12 *24024:A 38 
4 *411:12 *411:27 29.9971 
5 *411:27 *24035:A1 23 
6 *411:6 *411:38 33.6664 
7 *411:38 *24097:A1 23 
*END

*D_NET *412 7.38572e-05
*CONN
*I *23878:A I *D sky130_fd_sc_hd__inv_2
*I *24260:X O *D sky130_fd_sc_hd__dlygate4sd3_1
*CAP
1 *23878:A 2.07846e-05
2 *24260:X 2.07846e-05
3 *94:8 *23878:A 3.22879e-05
*RES
1 *24260:X *23878:A 46.6214 
*END

*D_NET *413 0.000475003
*CONN
*I *24331:A I *D sky130_fd_sc_hd__buf_2
*I *23884:X O *D sky130_fd_sc_hd__a22o_1
*CAP
1 *24331:A 0
2 *23884:X 0.000165447
3 *413:10 0.000165447
4 *24205:A *413:10 0
5 *362:47 *413:10 0
6 *402:10 *413:10 0.00014411
*RES
1 *23884:X *413:10 41.0036 
2 *413:10 *24331:A 38 
*END

*D_NET *414 0.00113245
*CONN
*I *24196:D I *D sky130_fd_sc_hd__dfxtp_1
*I *24261:X O *D sky130_fd_sc_hd__dlygate4sd3_1
*CAP
1 *24196:D 1.58638e-05
2 *24261:X 0.00039485
3 *414:10 0.000410713
4 *24196:CLK *414:10 2.76611e-06
5 *40:14 *414:10 0
6 *83:8 *414:10 0
7 *148:16 *414:10 5.67058e-05
8 *148:29 *414:10 0.000167443
9 *298:10 *414:10 8.41115e-05
*RES
1 *24261:X *414:10 46.5136 
2 *414:10 *24196:D 38.1916 
*END

*D_NET *415 0.00115911
*CONN
*I *23940:C I *D sky130_fd_sc_hd__and3_1
*I *24122:B1 I *D sky130_fd_sc_hd__a31o_1
*I *24263:X O *D sky130_fd_sc_hd__dlygate4sd3_1
*CAP
1 *23940:C 8.89405e-05
2 *24122:B1 0.000122616
3 *24263:X 0
4 *415:4 0.000211557
5 *23940:C *23940:A 5.67058e-05
6 *24122:B1 *23940:A 0.000204939
7 *23940:B *23940:C 1.58415e-05
8 *355:63 *23940:C 2.81041e-05
9 *355:101 *23940:C 7.62945e-05
10 *406:64 *24122:B1 0.00035411
*RES
1 *24263:X *415:4 23 
2 *415:4 *24122:B1 27.4329 
3 *415:4 *23940:C 25.7964 
*END

*D_NET *416 0.000354732
*CONN
*I *24124:B I *D sky130_fd_sc_hd__and3_1
*I *24264:X O *D sky130_fd_sc_hd__dlygate4sd3_1
*CAP
1 *24124:B 0.000107693
2 *24264:X 0.000107693
3 *107:44 *24124:B 0.000139346
*RES
1 *24264:X *24124:B 47.5743 
*END

*D_NET *417 0.000298769
*CONN
*I *24192:D I *D sky130_fd_sc_hd__dfxtp_1
*I *24265:X O *D sky130_fd_sc_hd__dlygate4sd3_1
*CAP
1 *24192:D 6.31444e-05
2 *24265:X 6.31444e-05
3 *89:76 *24192:D 0.00017248
*RES
1 *24265:X *24192:D 47.8902 
*END

*D_NET *418 0.00854749
*CONN
*I *23954:A I *D sky130_fd_sc_hd__nand3_1
*I *23948:A I *D sky130_fd_sc_hd__and3_1
*I *23959:A1 I *D sky130_fd_sc_hd__a21o_1
*I *24004:A2 I *D sky130_fd_sc_hd__o211a_1
*I *24266:X O *D sky130_fd_sc_hd__dlygate4sd3_1
*CAP
1 *23954:A 0.000155425
2 *23948:A 0
3 *23959:A1 0.000111855
4 *24004:A2 0
5 *24266:X 0
6 *418:44 0.00049485
7 *418:34 0.00074991
8 *418:25 0.00021149
9 *418:23 0.000695165
10 *418:12 0.000361769
11 *418:4 0.00105693
12 *23954:A *24300:A 0.000228909
13 *418:23 *445:25 0
14 *418:23 *465:8 0.000790033
15 *418:34 *24300:A 5.3304e-05
16 *418:44 *466:8 3.47781e-05
17 *23958:B *418:44 0.000246748
18 *23959:B1 *23959:A1 7.53384e-06
19 *23966:A1 *418:23 0
20 *24267:A *418:12 5.67058e-05
21 *89:159 *418:12 1.14452e-05
22 *107:110 *418:23 0
23 *333:8 *23959:A1 3.90611e-05
24 *333:8 *418:34 4.05745e-05
25 *343:25 *418:23 0.00121361
26 *343:25 *418:44 0.000793505
27 *354:109 *418:12 0
28 *357:116 *418:12 0.000333971
29 *357:116 *418:23 0.000505449
30 *361:145 *23954:A 6.97598e-05
31 *361:145 *418:44 0
32 *367:75 *418:44 0
33 *367:103 *23959:A1 0.000143655
34 *381:10 *418:23 0.000141052
*RES
1 *24266:X *418:4 23 
2 *418:4 *418:12 37.1879 
3 *418:12 *24004:A2 23 
4 *418:4 *418:23 38.2829 
5 *418:23 *418:25 15 
6 *418:25 *23959:A1 25.5271 
7 *418:25 *418:34 1.57429 
8 *418:34 *418:44 42.18 
9 *418:44 *23948:A 23 
10 *418:34 *23954:A 26.9771 
*END

*D_NET *419 0.000708505
*CONN
*I *24163:D I *D sky130_fd_sc_hd__dfxtp_1
*I *24267:X O *D sky130_fd_sc_hd__dlygate4sd3_1
*CAP
1 *24163:D 0.000103099
2 *24267:X 0.000251154
3 *419:8 0.000354252
4 *419:8 *24266:A 0
5 *354:109 *419:8 0
6 *381:10 *419:8 0
*RES
1 *24267:X *419:8 42.3707 
2 *419:8 *24163:D 39.6209 
*END

*D_NET *420 0.000934161
*CONN
*I *24120:B1 I *D sky130_fd_sc_hd__a21o_1
*I *23986:A I *D sky130_fd_sc_hd__and3_1
*I *24268:X O *D sky130_fd_sc_hd__dlygate4sd3_1
*CAP
1 *24120:B1 0
2 *23986:A 0
3 *24268:X 0.000148259
4 *420:21 4.70145e-05
5 *420:10 0.000195274
6 *23986:B *420:10 7.59794e-05
7 *23986:C *420:10 4.07962e-05
8 *95:55 *420:21 0.000171906
9 *187:22 *420:10 8.52481e-05
10 *362:170 *420:21 0.000169683
*RES
1 *24268:X *420:10 26.1693 
2 *420:10 *23986:A 23 
3 *420:10 *420:21 32.2579 
4 *420:21 *24120:B1 23 
*END

*D_NET *421 0.000632179
*CONN
*I *24121:C I *D sky130_fd_sc_hd__and3b_1
*I *24269:X O *D sky130_fd_sc_hd__dlygate4sd3_1
*CAP
1 *24121:C 0.0001214
2 *24269:X 5.60739e-05
3 *421:8 0.000177474
4 *421:8 *479:8 8.85189e-05
5 *187:22 *24121:C 0.000188713
*RES
1 *24269:X *421:8 39.2014 
2 *421:8 *24121:C 40.0507 
*END

*D_NET *422 0.000527857
*CONN
*I *24191:D I *D sky130_fd_sc_hd__dfxtp_1
*I *24270:X O *D sky130_fd_sc_hd__dlygate4sd3_1
*CAP
1 *24191:D 6.33725e-05
2 *24270:X 9.8058e-05
3 *422:10 0.00016143
4 *309:92 *422:10 0.000111852
5 *322:6 *422:10 5.50049e-05
6 *376:10 *422:10 3.81391e-05
*RES
1 *24270:X *422:10 40.175 
2 *422:10 *24191:D 38.9373 
*END

*D_NET *423 0.00435951
*CONN
*I *24006:A_N I *D sky130_fd_sc_hd__and2b_1
*I *23879:B I *D sky130_fd_sc_hd__nor2_4
*I *23894:B I *D sky130_fd_sc_hd__and2b_2
*I *23895:B I *D sky130_fd_sc_hd__nand2b_1
*I *24007:B I *D sky130_fd_sc_hd__or3b_1
*I *24271:X O *D sky130_fd_sc_hd__dlygate4sd3_1
*CAP
1 *24006:A_N 0
2 *23879:B 0
3 *23894:B 0
4 *23895:B 9.34811e-05
5 *24007:B 0
6 *24271:X 0.000188442
7 *423:59 0.000532696
8 *423:51 0.000737107
9 *423:27 9.34811e-05
10 *423:25 0.000376007
11 *423:16 0.000126218
12 *423:6 0.000486255
13 *423:59 *449:10 0
14 *23895:A_N *23895:B 0.000185368
15 *24007:C_N *423:6 0.000148185
16 *24007:C_N *423:16 0.000100069
17 *24080:A2 *423:16 2.02872e-05
18 *24086:B *23895:B 4.2417e-05
19 *24086:B *423:25 4.37697e-05
20 *99:12 *423:25 4.15283e-06
21 *103:25 *423:59 0.000210945
22 *103:27 *423:51 1.71017e-05
23 *103:27 *423:59 0.000103043
24 *200:12 *423:16 3.70094e-05
25 *200:44 *423:16 8.94487e-05
26 *200:44 *423:25 0
27 *200:44 *423:51 0
28 *264:8 *423:16 5.3304e-05
29 *264:10 *423:16 0.000117244
30 *264:10 *423:25 4.6318e-06
31 *311:14 *423:59 1.01436e-05
32 *312:12 *23895:B 0.000189203
33 *312:28 *423:25 0.00010812
34 *312:28 *423:51 1.12863e-05
35 *362:14 *23895:B 2.02872e-05
36 *362:25 *23895:B 1.37232e-05
37 *362:27 *23895:B 4.00259e-06
38 *362:91 *423:51 0.000192077
39 *400:69 *423:25 0
*RES
1 *24271:X *423:6 26.0036 
2 *423:6 *423:16 33.625 
3 *423:16 *24007:B 23 
4 *423:6 *423:25 17.61 
5 *423:25 *423:27 15 
6 *423:27 *23895:B 26.6716 
7 *423:27 *23894:B 23 
8 *423:25 *423:51 19.06 
9 *423:51 *423:59 40.8129 
10 *423:59 *23879:B 23 
11 *423:51 *24006:A_N 23 
*END

*D_NET *424 0.000673064
*CONN
*I *24332:A I *D sky130_fd_sc_hd__buf_2
*I *23885:X O *D sky130_fd_sc_hd__o22a_1
*CAP
1 *24332:A 0
2 *23885:X 0.000336532
3 *424:10 0.000336532
4 *424:10 *450:12 0
5 *28:10 *424:10 0
*RES
1 *23885:X *424:10 43.8207 
2 *424:10 *24332:A 38 
*END

*D_NET *425 0.00140205
*CONN
*I *24090:A I *D sky130_fd_sc_hd__or3_1
*I *23988:C I *D sky130_fd_sc_hd__or3_1
*I *24272:X O *D sky130_fd_sc_hd__dlygate4sd3_1
*CAP
1 *24090:A 0
2 *23988:C 6.11622e-05
3 *24272:X 0
4 *425:21 0.000195946
5 *425:4 0.000257109
6 *101:38 *425:21 3.39231e-05
7 *103:36 *425:21 9.62666e-05
8 *104:14 *425:21 0.0002499
9 *189:10 *23988:C 0
10 *192:12 *425:21 2.93845e-05
11 *192:23 *425:21 6.68822e-05
12 *400:31 *23988:C 5.67058e-05
13 *400:97 *425:21 0.000354769
*RES
1 *24272:X *425:4 23 
2 *425:4 *23988:C 24.4707 
3 *425:4 *425:21 36.7736 
4 *425:21 *24090:A 23 
*END

*D_NET *426 0.000232447
*CONN
*I *24156:D I *D sky130_fd_sc_hd__dfxtp_1
*I *24274:X O *D sky130_fd_sc_hd__dlygate4sd3_1
*CAP
1 *24156:D 1.26271e-05
2 *24274:X 9.53785e-05
3 *426:8 0.000108006
4 *308:50 *24156:D 1.64354e-05
*RES
1 *24274:X *426:8 39.5536 
2 *426:8 *24156:D 38.1916 
*END

*D_NET *427 0.0072047
*CONN
*I *24095:A0 I *D sky130_fd_sc_hd__mux2_1
*I *23898:A I *D sky130_fd_sc_hd__and2_1
*I *23994:A I *D sky130_fd_sc_hd__nor2_1
*I *24089:B1 I *D sky130_fd_sc_hd__o21ai_1
*I *24275:X O *D sky130_fd_sc_hd__dlygate4sd3_1
*CAP
1 *24095:A0 0
2 *23898:A 0.000501769
3 *23994:A 0
4 *24089:B1 0.000899395
5 *24275:X 0
6 *427:45 0.00041117
7 *427:30 0.000950567
8 *427:23 0.000290453
9 *427:4 0.00115222
10 *24089:B1 *24177:D 4.18314e-05
11 *23898:B *23898:A 9.78729e-06
12 *23904:A *23898:A 5.41385e-05
13 *24087:B *23898:A 0.000188927
14 *24089:A2 *24089:B1 5.40241e-05
15 *24096:B *427:45 0.000243596
16 *24275:A *24089:B1 8.20126e-06
17 *24276:A *24089:B1 3.22051e-05
18 *99:59 *427:45 0.000180939
19 *107:14 *23898:A 1.94812e-05
20 *107:25 *23898:A 7.06229e-05
21 *107:25 *427:23 0.000441059
22 *268:10 *23898:A 0.000182832
23 *307:10 *427:23 0.000300098
24 *307:103 *427:23 5.94125e-05
25 *307:122 *427:45 3.7473e-07
26 *307:133 *427:45 0
27 *307:144 *427:45 0
28 *311:43 *427:45 8.48232e-05
29 *312:35 *24089:B1 5.08471e-05
30 *312:39 *427:45 0
31 *324:16 *23898:A 9.9002e-05
32 *355:14 *23898:A 0.00026808
33 *355:14 *427:23 0.000230756
34 *355:14 *427:30 1.14154e-05
35 *362:120 *23898:A 7.87147e-05
36 *362:130 *23898:A 0.000160008
37 *400:97 *427:23 6.93214e-05
38 *400:110 *427:23 5.86328e-05
*RES
1 *24275:X *427:4 23 
2 *427:4 *24089:B1 36.05 
3 *427:4 *427:23 39.6321 
4 *427:23 *23994:A 23 
5 *427:23 *427:30 0.849286 
6 *427:30 *23898:A 36.0293 
7 *427:30 *427:45 38.2443 
8 *427:45 *24095:A0 23 
*END

*D_NET *428 0.000350201
*CONN
*I *24091:A1 I *D sky130_fd_sc_hd__a21oi_1
*I *24276:X O *D sky130_fd_sc_hd__dlygate4sd3_1
*CAP
1 *24091:A1 5.05779e-05
2 *24276:X 5.75535e-05
3 *428:8 0.000108131
4 *24277:A *24091:A1 1.94693e-05
5 *312:12 *428:8 8.62876e-05
6 *368:62 *428:8 2.76611e-06
7 *368:80 *428:8 2.5415e-05
*RES
1 *24276:X *428:8 39.2014 
2 *428:8 *24091:A1 38.6214 
*END

*D_NET *429 0.000467487
*CONN
*I *24177:D I *D sky130_fd_sc_hd__dfxtp_1
*I *24277:X O *D sky130_fd_sc_hd__dlygate4sd3_1
*CAP
1 *24177:D 3.77863e-05
2 *24277:X 0.000101935
3 *429:8 0.000139721
4 *24089:B1 *24177:D 4.18314e-05
5 *192:8 *429:8 0
6 *307:14 *429:8 0
7 *312:35 *24177:D 0.000146213
*RES
1 *24277:X *429:8 39.5536 
2 *429:8 *24177:D 39.6209 
*END

*D_NET *430 0.00128133
*CONN
*I *24010:A I *D sky130_fd_sc_hd__and3_1
*I *24093:A1 I *D sky130_fd_sc_hd__o21ai_1
*I *24278:X O *D sky130_fd_sc_hd__dlygate4sd3_1
*CAP
1 *24010:A 0.000395069
2 *24093:A1 7.50402e-05
3 *24278:X 0
4 *430:6 0.000470109
5 *24181:CLK *24010:A 0
6 *24181:CLK *24093:A1 0
7 *24216:A *24010:A 0.000139346
8 *106:12 *24010:A 6.21538e-05
9 *106:12 *24093:A1 2.79004e-05
10 *201:14 *24093:A1 5.67058e-05
11 *357:46 *24093:A1 5.50106e-05
*RES
1 *24278:X *430:6 38 
2 *430:6 *24093:A1 39.8229 
3 *430:6 *24010:A 45.0429 
*END

*D_NET *431 0.000413058
*CONN
*I *24179:D I *D sky130_fd_sc_hd__dfxtp_1
*I *24279:X O *D sky130_fd_sc_hd__dlygate4sd3_1
*CAP
1 *24179:D 0.000206529
2 *24279:X 0.000206529
*RES
1 *24279:X *24179:D 49.3195 
*END

*D_NET *432 0.0074253
*CONN
*I *23926:B I *D sky130_fd_sc_hd__nand4_4
*I *23925:A I *D sky130_fd_sc_hd__nand2_1
*I *24146:A1 I *D sky130_fd_sc_hd__o211a_1
*I *23936:A1 I *D sky130_fd_sc_hd__a22o_1
*I *24142:A I *D sky130_fd_sc_hd__and3_1
*I *23992:A2 I *D sky130_fd_sc_hd__a21oi_1
*I *24280:X O *D sky130_fd_sc_hd__dlygate4sd3_1
*CAP
1 *23926:B 0
2 *23925:A 0
3 *24146:A1 0.000250318
4 *23936:A1 0
5 *24142:A 0
6 *23992:A2 4.36641e-05
7 *24280:X 0
8 *432:45 0.000383286
9 *432:41 0.000396141
10 *432:30 0.00149734
11 *432:14 0.000158574
12 *432:4 0.00134908
13 *432:30 *23936:B2 5.56279e-05
14 *23936:A2 *432:41 0.000315852
15 *23940:B *432:41 0
16 *24142:B *432:14 1.59094e-05
17 *24142:C *432:14 1.95448e-05
18 *24144:A2 *432:45 8.94394e-05
19 *24146:A2 *24146:A1 7.84543e-05
20 *24146:B1 *24146:A1 5.3304e-05
21 *24198:CLK *432:30 9.27513e-05
22 *84:8 *432:14 6.64204e-05
23 *84:8 *432:30 0.000456312
24 *107:61 *432:41 0.000274534
25 *107:61 *432:45 0.000425799
26 *107:73 *432:45 1.14452e-05
27 *139:10 *432:41 5.67058e-05
28 *191:10 *23992:A2 5.50106e-05
29 *191:10 *432:14 0.000141226
30 *195:10 *432:30 1.32939e-05
31 *364:50 *432:45 0.000354778
32 *364:61 *432:41 0.000238454
33 *364:61 *432:45 1.14452e-05
34 *364:74 *432:41 5.3304e-05
35 *366:8 *24146:A1 4.42566e-05
36 *398:76 *432:30 0.000405808
37 *398:76 *432:41 1.72202e-05
*RES
1 *24280:X *432:4 23 
2 *432:4 *432:14 3.81143 
3 *432:14 *23992:A2 24.1186 
4 *432:14 *24142:A 23 
5 *432:4 *432:30 23.0136 
6 *432:30 *23936:A1 23 
7 *432:30 *432:41 23.0993 
8 *432:41 *432:45 20.7793 
9 *432:45 *24146:A1 28.5204 
10 *432:45 *23925:A 23 
11 *432:41 *23926:B 38 
*END

*D_NET *433 0.000140026
*CONN
*I *23993:B I *D sky130_fd_sc_hd__nor2_1
*I *24281:X O *D sky130_fd_sc_hd__dlygate4sd3_1
*CAP
1 *23993:B 1.50079e-05
2 *24281:X 1.50079e-05
3 *23993:B *439:25 5.50049e-05
4 *24122:A3 *23993:B 5.50049e-05
*RES
1 *24281:X *23993:B 46.6214 
*END

*D_NET *434 0.00936351
*CONN
*I *23936:B2 I *D sky130_fd_sc_hd__a22o_1
*I *23914:A I *D sky130_fd_sc_hd__and2_1
*I *23926:A I *D sky130_fd_sc_hd__nand4_4
*I *24144:A1 I *D sky130_fd_sc_hd__a32o_1
*I *23996:A2 I *D sky130_fd_sc_hd__o211a_1
*I *24282:X O *D sky130_fd_sc_hd__dlygate4sd3_1
*CAP
1 *23936:B2 0.000442869
2 *23914:A 0
3 *23926:A 0
4 *24144:A1 0
5 *23996:A2 0.000348423
6 *24282:X 0.000338584
7 *434:63 0.000246133
8 *434:50 0.000390412
9 *434:42 0.000877889
10 *434:31 0.000505451
11 *434:27 0.0007857
12 *434:10 0.00076573
13 *23996:B1 *23996:A2 0.000204267
14 *24144:B2 *434:31 6.72664e-05
15 *24144:B2 *434:42 9.16362e-05
16 *24144:B2 *434:50 0
17 *24200:D *434:42 0.000104433
18 *45:10 *23996:A2 0.000137131
19 *46:10 *23996:A2 0.000442715
20 *86:8 *434:50 0.000110922
21 *107:73 *434:42 0.00011519
22 *107:73 *434:63 0.00017282
23 *129:73 *434:50 5.50049e-05
24 *194:56 *23936:B2 6.4393e-05
25 *194:56 *434:10 1.58805e-05
26 *194:56 *434:27 0.000141692
27 *317:10 *23936:B2 0.000102629
28 *317:10 *434:10 0.000182585
29 *317:10 *434:27 0.000270722
30 *343:23 *434:50 0.000611554
31 *359:36 *23936:B2 0
32 *366:16 *23936:B2 0.000437235
33 *366:27 *23936:B2 0.000238454
34 *366:55 *23936:B2 0
35 *366:55 *434:31 2.39868e-05
36 *366:75 *434:63 0.000246757
37 *367:23 *434:10 0.000141954
38 *367:25 *434:63 7.63049e-05
39 *398:10 *434:50 0
40 *398:35 *434:42 0.000104848
41 *398:35 *434:63 0.000390679
42 *398:76 *23936:B2 5.56279e-05
43 *398:76 *434:50 0
44 *432:30 *23936:B2 5.56279e-05
*RES
1 *24282:X *434:10 44.6493 
2 *434:10 *23996:A2 47.86 
3 *434:10 *434:27 3.66643 
4 *434:27 *434:31 19.4329 
5 *434:31 *24144:A1 23 
6 *434:31 *434:42 6.02786 
7 *434:42 *434:50 38.8657 
8 *434:50 *23926:A 23 
9 *434:42 *434:63 37.7471 
10 *434:63 *23914:A 23 
11 *434:27 *23936:B2 49.6829 
*END

*D_NET *435 0.000783992
*CONN
*I *24297:A I *D sky130_fd_sc_hd__dlygate4sd3_1
*I *24182:Q O *D sky130_fd_sc_hd__dfxtp_1
*CAP
1 *24297:A 0.00011018
2 *24182:Q 0.000103574
3 *435:8 0.000213754
4 *24079:B1 *435:8 0
5 *262:8 *24297:A 0.000272383
6 *307:34 *435:8 8.41012e-05
*RES
1 *24182:Q *435:8 40.2579 
2 *435:8 *24297:A 41.0036 
*END

*D_NET *436 0.00131846
*CONN
*I *24271:A I *D sky130_fd_sc_hd__dlygate4sd3_1
*I *24173:Q O *D sky130_fd_sc_hd__dfxtp_1
*CAP
1 *24271:A 0
2 *24173:Q 0.000414333
3 *436:10 0.000414333
4 *436:10 *24316:A 0.000114618
5 *436:10 *438:8 2.26406e-05
6 *264:10 *436:10 0.000352538
7 *368:62 *436:10 0
*RES
1 *24173:Q *436:10 45.7264 
2 *436:10 *24271:A 38 
*END

*D_NET *437 0.00659833
*CONN
*I *24100:A1 I *D sky130_fd_sc_hd__a31o_1
*I *24248:A I *D sky130_fd_sc_hd__dlygate4sd3_1
*I *24174:Q O *D sky130_fd_sc_hd__dfxtp_2
*CAP
1 *24100:A1 0
2 *24248:A 0.000230688
3 *24174:Q 0.000568238
4 *437:23 0.00152136
5 *437:8 0.00232029
6 *24248:A *481:10 2.22079e-05
7 *437:23 *439:10 0
8 *437:23 *480:8 7.03766e-05
9 *437:23 *481:10 2.29192e-05
10 *23899:A0 *437:23 0
11 *23899:A1 *437:23 0
12 *44:8 *437:23 0
13 *99:90 *437:23 0.000112906
14 *102:14 *437:23 2.19643e-05
15 *102:25 *437:23 0.000141869
16 *103:53 *437:23 0
17 *104:14 *437:23 0
18 *105:10 *437:23 0
19 *106:29 *437:23 0.000118393
20 *107:25 *437:23 5.00432e-05
21 *107:44 *437:23 0.000155093
22 *191:10 *437:23 0.000138727
23 *194:16 *437:23 0
24 *306:28 *437:23 4.97925e-05
25 *323:10 *437:23 0
26 *364:29 *437:8 0.000190568
27 *365:27 *437:23 3.83778e-05
28 *372:10 *24248:A 0
29 *393:16 *437:23 5.50049e-05
30 *400:10 *24248:A 0.000216721
31 *400:10 *437:23 0.000178773
32 *400:27 *437:23 0.000374011
33 *400:127 *437:23 0
34 *403:8 *24248:A 0
*RES
1 *24174:Q *437:8 46.2443 
2 *437:8 *24248:A 41.6664 
3 *437:8 *437:23 46.175 
4 *437:23 *24100:A1 23 
*END

*D_NET *438 0.016814
*CONN
*I *24316:A I *D sky130_fd_sc_hd__dlygate4sd3_1
*I *23892:A I *D sky130_fd_sc_hd__and3_1
*I *24175:Q O *D sky130_fd_sc_hd__dfxtp_1
*CAP
1 *24316:A 0.000143138
2 *23892:A 8.36272e-05
3 *24175:Q 1.5769e-05
4 *438:20 0.00772376
5 *438:8 0.00779904
6 *23892:A *455:10 4.40021e-05
7 *24007:C_N *24316:A 0.000318946
8 *24080:A2 *24316:A 0.000318946
9 *99:12 *438:20 7.51431e-06
10 *354:32 *438:20 0.000221959
11 *400:56 *24316:A 0
12 *436:10 *24316:A 0.000114618
13 *436:10 *438:8 2.26406e-05
*RES
1 *24175:Q *438:8 38.3211 
2 *438:8 *438:20 42.8832 
3 *438:20 *23892:A 47.3775 
4 *438:8 *24316:A 43.2096 
*END

*D_NET *439 0.0040785
*CONN
*I *23940:A I *D sky130_fd_sc_hd__and3_1
*I *24122:A1 I *D sky130_fd_sc_hd__a31o_1
*I *24280:A I *D sky130_fd_sc_hd__dlygate4sd3_1
*I *24158:Q O *D sky130_fd_sc_hd__dfxtp_2
*CAP
1 *23940:A 0.000138636
2 *24122:A1 2.34823e-05
3 *24280:A 0
4 *24158:Q 0.000513273
5 *439:25 0.000522496
6 *439:10 0.000873651
7 *23940:C *23940:A 5.67058e-05
8 *23993:A *439:25 5.67058e-05
9 *23993:B *439:25 5.50049e-05
10 *24122:A2 *439:25 0.000143874
11 *24122:A3 *439:25 0.000146199
12 *24122:B1 *23940:A 0.000204939
13 *44:8 *439:10 8.87137e-05
14 *105:59 *439:10 4.56802e-05
15 *106:29 *439:10 6.60367e-05
16 *106:29 *439:25 4.73689e-05
17 *355:40 *439:10 0.000165049
18 *355:40 *439:25 0.000165593
19 *355:63 *23940:A 0.000466897
20 *355:63 *439:25 0.000269994
21 *406:64 *23940:A 1.41077e-05
22 *406:64 *439:25 1.40958e-05
23 *437:23 *439:10 0
*RES
1 *24158:Q *439:10 47.1557 
2 *439:10 *24280:A 38 
3 *439:10 *439:25 24.0936 
4 *439:25 *24122:A1 23.4971 
5 *439:25 *23940:A 28.3857 
*END

*D_NET *440 0.00616515
*CONN
*I *23924:A1 I *D sky130_fd_sc_hd__a22oi_1
*I *23915:B I *D sky130_fd_sc_hd__and4_1
*I *24282:A I *D sky130_fd_sc_hd__dlygate4sd3_1
*I *24159:Q O *D sky130_fd_sc_hd__dfxtp_2
*CAP
1 *23924:A1 0.000169539
2 *23915:B 0
3 *24282:A 0
4 *24159:Q 0
5 *440:27 0.000281462
6 *440:23 0.00117578
7 *440:12 0.000240153
8 *440:4 0.00130401
9 *23924:A1 *442:44 0.000325471
10 *440:23 *442:23 0.00116278
11 *440:27 *442:27 5.50106e-05
12 *440:27 *442:44 3.75171e-05
13 *23924:A2 *23924:A1 1.55941e-05
14 *89:133 *440:23 3.58084e-06
15 *127:10 *23924:A1 5.93722e-05
16 *308:78 *440:23 4.05309e-05
17 *326:14 *440:23 0.000101775
18 *326:20 *440:23 0.000163352
19 *343:23 *440:12 0
20 *343:23 *440:23 0.000149035
21 *367:23 *440:12 0.000317553
22 *367:25 *440:23 0.000164364
23 *367:29 *440:23 0.000363508
24 *367:62 *440:23 3.47776e-05
*RES
1 *24159:Q *440:4 23 
2 *440:4 *440:12 35.3857 
3 *440:12 *24282:A 23 
4 *440:4 *440:23 40.7271 
5 *440:23 *440:27 16.5743 
6 *440:27 *23915:B 23 
7 *440:27 *23924:A1 26.9771 
*END

*D_NET *441 0.00394882
*CONN
*I *23913:B2 I *D sky130_fd_sc_hd__a22o_1
*I *24246:A I *D sky130_fd_sc_hd__dlygate4sd3_1
*I *24161:Q O *D sky130_fd_sc_hd__dfxtp_1
*CAP
1 *23913:B2 0
2 *24246:A 0
3 *24161:Q 0.000893646
4 *441:25 0.000634621
5 *441:10 0.00152827
6 *23906:A2 *441:25 5.3304e-05
7 *23906:B1_N *441:25 1.01436e-05
8 *130:10 *441:25 0.000142677
9 *364:95 *441:25 1.37349e-05
10 *364:117 *441:25 9.84851e-05
11 *366:88 *441:25 3.47781e-05
12 *366:105 *441:25 0.000411299
13 *366:120 *441:25 9.84851e-05
14 *398:8 *441:10 2.93747e-05
*RES
1 *24161:Q *441:10 37.6036 
2 *441:10 *24246:A 23 
3 *441:10 *441:25 43.5679 
4 *441:25 *23913:B2 23 
*END

*D_NET *442 0.00724181
*CONN
*I *23913:A1 I *D sky130_fd_sc_hd__a22o_1
*I *23924:B2 I *D sky130_fd_sc_hd__a22oi_1
*I *23915:A I *D sky130_fd_sc_hd__and4_1
*I *24293:A I *D sky130_fd_sc_hd__dlygate4sd3_1
*I *24160:Q O *D sky130_fd_sc_hd__dfxtp_1
*CAP
1 *23913:A1 0
2 *23924:B2 2.34823e-05
3 *23915:A 0
4 *24293:A 0
5 *24160:Q 5.99238e-05
6 *442:59 0.000219502
7 *442:44 0.000586014
8 *442:27 0.00038934
9 *442:23 0.000620244
10 *442:8 0.000633859
11 *442:44 *459:10 6.16439e-05
12 *23924:A1 *442:44 0.000325471
13 *23924:A2 *442:44 5.27196e-05
14 *23998:C1 *442:23 0
15 *46:10 *442:8 0.000121654
16 *46:10 *442:23 0.000590474
17 *127:10 *442:44 9.58714e-05
18 *194:56 *442:8 0.00014196
19 *194:56 *442:23 0.000273129
20 *308:86 *442:23 0.00035673
21 *326:10 *442:23 4.79544e-05
22 *326:46 *442:59 0
23 *343:23 *442:23 0.00119057
24 *355:101 *442:27 3.17634e-05
25 *355:101 *442:44 0.000129226
26 *355:101 *442:59 2.72257e-05
27 *364:95 *442:59 0
28 *367:62 *442:23 7.75329e-06
29 *440:23 *442:23 0.00116278
30 *440:27 *442:27 5.50106e-05
31 *440:27 *442:44 3.75171e-05
*RES
1 *24160:Q *442:8 25.4236 
2 *442:8 *24293:A 23 
3 *442:8 *442:23 40.23 
4 *442:23 *442:27 16.0979 
5 *442:27 *23915:A 23 
6 *442:27 *442:44 37.3536 
7 *442:44 *23924:B2 23.4971 
8 *442:44 *442:59 33.0036 
9 *442:59 *23913:A1 23 
*END

*D_NET *443 0.000328277
*CONN
*I *24232:A I *D sky130_fd_sc_hd__dlygate4sd3_1
*I *24162:Q O *D sky130_fd_sc_hd__dfxtp_1
*CAP
1 *24232:A 0
2 *24162:Q 7.58322e-05
3 *443:8 7.58322e-05
4 *384:19 *443:8 3.5664e-05
5 *394:10 *443:8 0.000140949
*RES
1 *24162:Q *443:8 39.9057 
2 *443:8 *24232:A 38 
*END

*D_NET *444 0.00949346
*CONN
*I *24024:B I *D sky130_fd_sc_hd__nand4_1
*I *24023:A1 I *D sky130_fd_sc_hd__a22o_1
*I *24013:B2 I *D sky130_fd_sc_hd__a22o_1
*I *24014:A I *D sky130_fd_sc_hd__nand4_1
*I *23961:A I *D sky130_fd_sc_hd__nand2_1
*I *23969:B2 I *D sky130_fd_sc_hd__a22o_1
*I *23962:A I *D sky130_fd_sc_hd__nand4_1
*I *24304:A I *D sky130_fd_sc_hd__dlygate4sd3_1
*I *24180:Q O *D sky130_fd_sc_hd__dfxtp_2
*CAP
1 *24024:B 7.95608e-05
2 *24023:A1 0
3 *24013:B2 0
4 *24014:A 0.000162374
5 *23961:A 0.000294132
6 *23969:B2 0
7 *23962:A 3.95982e-05
8 *24304:A 8.71989e-05
9 *24180:Q 9.42971e-05
10 *444:84 0.00030752
11 *444:76 0.000848019
12 *444:58 0.000181975
13 *444:56 0.000934375
14 *444:34 0.000352052
15 *444:30 0.000617536
16 *444:19 0.000761219
17 *444:8 0.000797336
18 *23961:A *24259:A 5.90675e-06
19 *24014:A *24013:A1 2.4754e-05
20 *444:34 *24259:A 2.93845e-05
21 *444:84 *447:10 0
22 *23961:B *23961:A 0.000148073
23 *23962:C *23962:A 9.67842e-05
24 *23969:A1 *23961:A 9.84851e-05
25 *23969:B1 *23961:A 1.56665e-05
26 *23969:B1 *444:34 0.000139357
27 *24014:C *24014:A 0.000141052
28 *24030:A1 *24024:B 1.01436e-05
29 *24224:A *23961:A 9.5877e-05
30 *48:10 *444:19 0.00012077
31 *70:10 *24304:A 3.71369e-05
32 *105:10 *444:19 0
33 *105:23 *444:19 0.000194459
34 *105:23 *444:30 0.000101657
35 *105:23 *444:56 0.000123439
36 *106:16 *24024:B 0
37 *164:8 *23962:A 5.50049e-05
38 *219:27 *24024:B 0
39 *355:194 *444:8 0
40 *357:10 *444:19 0
41 *357:27 *444:8 4.58924e-05
42 *357:27 *444:19 9.15204e-05
43 *363:8 *23961:A 0.000353214
44 *363:40 *444:84 5.50049e-05
45 *363:42 *444:84 0.000215426
46 *363:52 *444:76 0
47 *365:59 *444:19 0.000185686
48 *365:59 *444:30 1.47563e-05
49 *365:68 *444:30 8.51329e-05
50 *365:83 *24014:A 4.95081e-05
51 *365:83 *444:30 1.83667e-05
52 *365:83 *444:56 0.000863525
53 *365:83 *444:58 5.50049e-05
54 *365:95 *444:76 4.35681e-06
55 *384:19 *444:19 0
56 *394:10 *444:19 0
57 *411:12 *24024:B 1.83667e-05
58 *411:12 *444:76 0.00040529
59 *411:12 *444:84 0
60 *411:27 *24024:B 3.72639e-05
61 *411:27 *444:84 0
*RES
1 *24180:Q *444:8 39.9057 
2 *444:8 *24304:A 39.5743 
3 *444:8 *444:19 14.2307 
4 *444:19 *23962:A 39.0979 
5 *444:19 *444:30 2.96214 
6 *444:30 *444:34 16.5743 
7 *444:34 *23969:B2 23 
8 *444:34 *23961:A 30.8093 
9 *444:30 *444:56 27.5114 
10 *444:56 *444:58 0.621429 
11 *444:58 *24014:A 26.9771 
12 *444:58 *24013:B2 23 
13 *444:56 *444:76 25.7093 
14 *444:76 *444:84 35.7586 
15 *444:84 *24023:A1 38 
16 *444:76 *24024:B 39.5536 
*END

*D_NET *445 0.00474711
*CONN
*I *23952:A1 I *D sky130_fd_sc_hd__a21oi_1
*I *24266:A I *D sky130_fd_sc_hd__dlygate4sd3_1
*I *24163:Q O *D sky130_fd_sc_hd__dfxtp_1
*CAP
1 *23952:A1 0
2 *24266:A 0.000273391
3 *24163:Q 5.45426e-05
4 *445:25 0.00070675
5 *445:8 0.00103468
6 *23965:B *445:25 1.37349e-05
7 *23966:A1 *445:25 0.000225265
8 *107:110 *24266:A 0.000244691
9 *107:110 *445:25 0.000303726
10 *155:20 *445:25 1.40958e-05
11 *156:21 *445:25 0.000306054
12 *156:32 *445:25 0.000209748
13 *159:8 *445:25 0.000227208
14 *167:10 *445:25 0.000244517
15 *167:22 *445:25 0.000506685
16 *356:43 *445:25 3.39231e-05
17 *363:107 *445:25 0.000265439
18 *381:10 *24266:A 8.26569e-05
19 *418:23 *445:25 0
20 *419:8 *24266:A 0
*RES
1 *24163:Q *445:8 38.6214 
2 *445:8 *24266:A 44.4836 
3 *445:8 *445:25 37.3093 
4 *445:25 *23952:A1 23 
*END

*D_NET *446 0.00466213
*CONN
*I *24014:B I *D sky130_fd_sc_hd__nand4_1
*I *24013:A1 I *D sky130_fd_sc_hd__a22o_1
*I *24278:A I *D sky130_fd_sc_hd__dlygate4sd3_1
*I *24005:A1 I *D sky130_fd_sc_hd__a31o_1
*I *24179:Q O *D sky130_fd_sc_hd__dfxtp_1
*CAP
1 *24014:B 0
2 *24013:A1 0.000150943
3 *24278:A 0
4 *24005:A1 0
5 *24179:Q 0
6 *446:42 0.000485229
7 *446:29 0.000542926
8 *446:14 0.000568535
9 *446:4 0.000777175
10 *24005:A3 *446:14 0.000350687
11 *24014:A *24013:A1 2.4754e-05
12 *24014:C *24013:A1 0.0002246
13 *24021:A1 *446:42 5.11935e-06
14 *24216:A *446:42 0.000244517
15 *24257:A *446:29 0.000278634
16 *106:12 *446:42 0.000296721
17 *106:16 *446:42 0
18 *201:14 *446:42 5.50106e-05
19 *357:46 *446:29 5.3304e-05
20 *357:46 *446:42 9.41704e-05
21 *365:95 *446:42 1.05658e-05
22 *365:97 *446:42 0.000215325
23 *365:103 *446:29 0.000278634
24 *408:8 *446:14 4.38519e-06
25 *408:8 *446:29 8.91468e-07
*RES
1 *24179:Q *446:4 23 
2 *446:4 *446:14 38.3479 
3 *446:14 *24005:A1 23 
4 *446:4 *446:29 35.3857 
5 *446:29 *24278:A 23 
6 *446:29 *446:42 40.3986 
7 *446:42 *24013:A1 26.0036 
8 *446:42 *24014:B 23 
*END

*D_NET *447 0.00458726
*CONN
*I *24259:A I *D sky130_fd_sc_hd__dlygate4sd3_1
*I *24034:A I *D sky130_fd_sc_hd__and3_1
*I *24023:B2 I *D sky130_fd_sc_hd__a22o_1
*I *24181:Q O *D sky130_fd_sc_hd__dfxtp_1
*CAP
1 *24259:A 0.000175372
2 *24034:A 0
3 *24023:B2 2.01797e-05
4 *24181:Q 5.01091e-05
5 *447:25 0.000911462
6 *447:10 0.00160149
7 *447:6 0.00089533
8 *447:25 *24288:A 9.84794e-05
9 *23961:A *24259:A 5.90675e-06
10 *23969:B1 *24259:A 2.98648e-05
11 *105:23 *447:10 0
12 *214:10 *447:25 0
13 *217:29 *447:25 0
14 *218:54 *447:25 0
15 *227:10 *447:25 0
16 *345:45 *447:25 6.6869e-05
17 *353:86 *447:10 0.000151172
18 *353:86 *447:25 0.000189306
19 *363:40 *24023:B2 9.84794e-05
20 *365:83 *447:10 0.000108672
21 *367:81 *24023:B2 9.84794e-05
22 *411:6 *447:6 5.67058e-05
23 *411:38 *447:10 0
24 *444:34 *24259:A 2.93845e-05
25 *444:84 *447:10 0
*RES
1 *24181:Q *447:6 24.0979 
2 *447:6 *447:10 28.8786 
3 *447:10 *24023:B2 39.0979 
4 *447:10 *447:25 31.1364 
5 *447:25 *24034:A 23 
6 *447:6 *24259:A 26.0243 
*END

*D_NET *448 0.00360794
*CONN
*I *23883:B2 I *D sky130_fd_sc_hd__o22a_1
*I *24164:Q O *D sky130_fd_sc_hd__dfxtp_1
*CAP
1 *23883:B2 0
2 *24164:Q 0.000316119
3 *448:12 0.000482303
4 *448:8 0.000798422
5 *448:12 *449:10 0
6 *23882:A *448:12 1.14452e-05
7 *23885:B1 *448:12 8.4047e-05
8 *23887:B *448:12 4.41619e-05
9 *64:8 *448:12 0.000141879
10 *96:10 *448:12 0.0013548
11 *97:8 *448:12 6.53342e-05
12 *97:17 *448:12 0.000284733
13 *304:10 *448:12 2.46933e-05
*RES
1 *24164:Q *448:8 41.9564 
2 *448:8 *448:12 33.8086 
3 *448:12 *23883:B2 23 
*END

*D_NET *449 0.00795693
*CONN
*I *23884:B2 I *D sky130_fd_sc_hd__a22o_1
*I *24165:Q O *D sky130_fd_sc_hd__dfxtp_1
*CAP
1 *23884:B2 3.25631e-05
2 *24165:Q 0.000461162
3 *449:10 0.00116485
4 *449:8 0.00159345
5 *23887:B *449:10 0.000138727
6 *24165:CLK *449:8 2.12982e-05
7 *24165:D *449:8 1.06063e-06
8 *90:118 *449:10 0
9 *95:49 *449:10 0.00051615
10 *97:8 *449:10 0.00019654
11 *97:17 *449:10 0.00207371
12 *103:25 *449:10 0
13 *304:10 *449:10 0.00073221
14 *311:14 *449:10 4.38375e-05
15 *312:28 *23884:B2 5.50106e-05
16 *362:150 *449:10 0.000577837
17 *362:170 *449:10 0.000348536
18 *423:59 *449:10 0
19 *448:12 *449:10 0
*RES
1 *24165:Q *449:8 43.8621 
2 *449:8 *449:10 41.6979 
3 *449:10 *23884:B2 38.6214 
*END

*D_NET *450 0.00309125
*CONN
*I *23885:B2 I *D sky130_fd_sc_hd__o22a_1
*I *24166:Q O *D sky130_fd_sc_hd__dfxtp_1
*CAP
1 *23885:B2 0
2 *24166:Q 0.000303595
3 *450:12 0.000865617
4 *450:8 0.00116921
5 *23885:B1 *450:12 1.14452e-05
6 *24165:CLK *450:12 0.000198654
7 *97:17 *450:12 0.00024159
8 *309:46 *450:12 0.000301137
9 *424:10 *450:12 0
*RES
1 *24166:Q *450:8 41.9564 
2 *450:8 *450:12 36.9779 
3 *450:12 *23885:B2 23 
*END

*D_NET *451 0.000791439
*CONN
*I *23886:B I *D sky130_fd_sc_hd__and3_1
*I *24167:Q O *D sky130_fd_sc_hd__dfxtp_1
*CAP
1 *23886:B 0
2 *24167:Q 0.000392682
3 *451:10 0.000392682
4 *95:66 *451:10 0
5 *316:8 *451:10 6.07611e-06
*RES
1 *24167:Q *451:10 43.9657 
2 *451:10 *23886:B 38 
*END

*D_NET *452 0.00201848
*CONN
*I *23889:A1 I *D sky130_fd_sc_hd__a21o_1
*I *24168:Q O *D sky130_fd_sc_hd__dfxtp_1
*CAP
1 *23889:A1 0
2 *24168:Q 0.00048103
3 *452:8 0.00048103
4 *452:8 *453:6 0.000627622
5 *490:DIODE *452:8 8.82787e-05
6 *95:79 *452:8 6.85247e-05
7 *97:23 *452:8 1.8104e-05
8 *309:124 *452:8 6.17437e-06
9 *362:202 *452:8 0.000247714
*RES
1 *24168:Q *452:8 36.3814 
2 *452:8 *23889:A1 23 
*END

*D_NET *453 0.00264169
*CONN
*I *23890:B I *D sky130_fd_sc_hd__and3_1
*I *24169:Q O *D sky130_fd_sc_hd__dfxtp_1
*CAP
1 *23890:B 0
2 *24169:Q 0.000864043
3 *453:6 0.000864043
4 *24169:CLK *453:6 2.30292e-05
5 *309:124 *453:6 0.000262949
6 *452:8 *453:6 0.000627622
*RES
1 *24169:Q *453:6 37.4379 
2 *453:6 *23890:B 23 
*END

*D_NET *454 0.00412687
*CONN
*I *23891:A1 I *D sky130_fd_sc_hd__a21o_1
*I *24170:Q O *D sky130_fd_sc_hd__dfxtp_1
*CAP
1 *23891:A1 0
2 *24170:Q 0.000110804
3 *454:14 0.00191121
4 *454:8 0.00202202
5 *23891:A2 *454:14 8.28419e-05
*RES
1 *24170:Q *454:8 39.9057 
2 *454:8 *454:14 49.945 
3 *454:14 *23891:A1 23 
*END

*D_NET *455 0.000884545
*CONN
*I *23892:B I *D sky130_fd_sc_hd__and3_1
*I *24171:Q O *D sky130_fd_sc_hd__dfxtp_1
*CAP
1 *23892:B 0
2 *24171:Q 0.000297411
3 *455:10 0.000297411
4 *23892:A *455:10 4.40021e-05
5 *24172:CLK *455:10 0.000187129
6 *95:99 *455:10 0
7 *338:8 *455:10 4.21594e-06
8 *352:8 *455:10 6.07611e-06
9 *362:202 *455:10 3.81554e-05
10 *378:8 *455:10 1.01436e-05
*RES
1 *24171:Q *455:10 43.0129 
2 *455:10 *23892:B 38 
*END

*D_NET *456 0.00158471
*CONN
*I *23893:A1 I *D sky130_fd_sc_hd__a21o_1
*I *24172:Q O *D sky130_fd_sc_hd__dfxtp_1
*CAP
1 *23893:A1 0
2 *24172:Q 0.000536704
3 *456:10 0.000536704
4 *95:66 *456:10 0.000138727
5 *95:99 *456:10 0.000240695
6 *97:29 *456:10 0.000131878
*RES
1 *24172:Q *456:10 47.5079 
2 *456:10 *23893:A1 38 
*END

*D_NET *457 0.000252794
*CONN
*I *24263:A I *D sky130_fd_sc_hd__dlygate4sd3_1
*I *24198:Q O *D sky130_fd_sc_hd__dfxtp_1
*CAP
1 *24263:A 0
2 *24198:Q 0.000105729
3 *457:8 0.000105729
4 *192:34 *457:8 4.13358e-05
5 *308:162 *457:8 0
*RES
1 *24198:Q *457:8 39.9057 
2 *457:8 *24263:A 38 
*END

*D_NET *458 0.000882962
*CONN
*I *24306:A I *D sky130_fd_sc_hd__dlygate4sd3_1
*I *24199:Q O *D sky130_fd_sc_hd__dfxtp_1
*CAP
1 *24306:A 0
2 *24199:Q 0.000257865
3 *458:10 0.000257865
4 *107:110 *458:10 0.000197001
5 *139:23 *458:10 0
6 *141:23 *458:10 0.000136486
7 *379:25 *458:10 3.3746e-05
*RES
1 *24199:Q *458:10 43.3443 
2 *458:10 *24306:A 38 
*END

*D_NET *459 0.00241247
*CONN
*I *24244:A I *D sky130_fd_sc_hd__dlygate4sd3_1
*I *24200:Q O *D sky130_fd_sc_hd__dfxtp_1
*CAP
1 *24244:A 0
2 *24200:Q 0
3 *459:10 0.000592102
4 *459:6 0.000592102
5 *23924:A2 *459:10 4.14048e-05
6 *23929:A2 *459:10 6.38845e-05
7 *118:8 *459:10 0.000114083
8 *118:27 *459:10 9.21347e-06
9 *127:10 *459:10 0.000138727
10 *129:73 *459:10 7.66085e-05
11 *364:95 *459:10 0.000319136
12 *366:75 *459:10 0.000194309
13 *366:113 *459:10 0.000163361
14 *367:25 *459:10 4.58924e-05
15 *367:29 *459:10 0
16 *367:62 *459:10 0
17 *442:44 *459:10 6.16439e-05
*RES
1 *24200:Q *459:6 38 
2 *459:6 *459:10 30.9914 
3 *459:10 *24244:A 23 
*END

*D_NET *460 0.00273138
*CONN
*I *24238:A I *D sky130_fd_sc_hd__dlygate4sd3_1
*I *24201:Q O *D sky130_fd_sc_hd__dfxtp_1
*CAP
1 *24238:A 0
2 *24201:Q 0
3 *460:12 0.000931562
4 *460:6 0.000931562
5 *460:12 *461:10 0
6 *94:12 *460:12 0.000567659
7 *109:12 *460:12 0
8 *110:10 *460:12 9.00646e-05
9 *110:23 *460:12 9.11983e-05
10 *116:14 *460:12 6.43253e-05
11 *118:34 *460:12 5.50049e-05
*RES
1 *24201:Q *460:6 38 
2 *460:6 *460:12 36.1907 
3 *460:12 *24238:A 23 
*END

*D_NET *461 0.00067217
*CONN
*I *24260:A I *D sky130_fd_sc_hd__dlygate4sd3_1
*I *24202:Q O *D sky130_fd_sc_hd__dfxtp_1
*CAP
1 *24260:A 0
2 *24202:Q 0.000336085
3 *461:10 0.000336085
4 *460:12 *461:10 0
*RES
1 *24202:Q *461:10 43.8207 
2 *461:10 *24260:A 38 
*END

*D_NET *462 0.000425995
*CONN
*I *24285:A I *D sky130_fd_sc_hd__dlygate4sd3_1
*I *24203:Q O *D sky130_fd_sc_hd__dfxtp_1
*CAP
1 *24285:A 0
2 *24203:Q 0.000199385
3 *462:10 0.000199385
4 *201:51 *462:10 0
5 *310:22 *462:10 0
6 *356:72 *462:10 2.72257e-05
*RES
1 *24203:Q *462:10 41.0036 
2 *462:10 *24285:A 38 
*END

*D_NET *463 0.000515827
*CONN
*I *24241:A I *D sky130_fd_sc_hd__dlygate4sd3_1
*I *24192:Q O *D sky130_fd_sc_hd__dfxtp_1
*CAP
1 *24241:A 0
2 *24192:Q 0.000161296
3 *463:10 0.000161296
4 *89:76 *463:10 1.04148e-05
5 *355:194 *463:10 1.86869e-05
6 *355:214 *463:10 2.5415e-05
7 *364:139 *463:10 0.000138718
*RES
1 *24192:Q *463:10 41.0036 
2 *463:10 *24241:A 38 
*END

*D_NET *464 0.002143
*CONN
*I *24234:A I *D sky130_fd_sc_hd__dlygate4sd3_1
*I *24193:Q O *D sky130_fd_sc_hd__dfxtp_1
*CAP
1 *24234:A 5.95506e-05
2 *24193:Q 0.000705213
3 *464:10 0.000764763
4 *23971:A *24234:A 0.000228001
5 *23972:C *24234:A 7.22251e-05
6 *165:40 *24234:A 0.000313249
7 *170:8 *464:10 0
8 *310:47 *464:10 0
9 *354:109 *464:10 0
10 *388:25 *464:10 0
*RES
1 *24193:Q *464:10 48.5436 
2 *464:10 *24234:A 41.48 
*END

*D_NET *465 0.00271208
*CONN
*I *24236:A I *D sky130_fd_sc_hd__dlygate4sd3_1
*I *24194:Q O *D sky130_fd_sc_hd__dfxtp_1
*CAP
1 *24236:A 0.000274732
2 *24194:Q 0.000368638
3 *465:8 0.00064337
4 *23947:B1 *24236:A 0.000227208
5 *23966:A1 *24236:A 5.97178e-05
6 *23966:A2 *24236:A 0.00010018
7 *23966:B1 *24236:A 5.3304e-05
8 *23967:B *24236:A 1.57571e-05
9 *107:110 *465:8 0
10 *167:22 *24236:A 0.000179139
11 *418:23 *465:8 0.000790033
*RES
1 *24194:Q *465:8 48.3571 
2 *465:8 *24236:A 45.2914 
*END

*D_NET *466 0.00134639
*CONN
*I *24300:A I *D sky130_fd_sc_hd__dlygate4sd3_1
*I *24195:Q O *D sky130_fd_sc_hd__dfxtp_1
*CAP
1 *24300:A 6.50103e-05
2 *24195:Q 0.000183076
3 *466:8 0.000248086
4 *23954:A *24300:A 0.000228909
5 *23954:C *24300:A 0.000110226
6 *333:8 *24300:A 1.24376e-05
7 *343:25 *466:8 0.000353858
8 *361:145 *24300:A 5.67058e-05
9 *367:62 *466:8 0
10 *418:34 *24300:A 5.3304e-05
11 *418:44 *466:8 3.47781e-05
*RES
1 *24195:Q *466:8 42.7229 
2 *466:8 *24300:A 41.0036 
*END

*D_NET *467 0.00096837
*CONN
*I *24302:A I *D sky130_fd_sc_hd__dlygate4sd3_1
*I *24196:Q O *D sky130_fd_sc_hd__dfxtp_1
*CAP
1 *24302:A 0.000221978
2 *24196:Q 0.000201822
3 *467:8 0.0004238
4 *40:14 *467:8 0.00012077
*RES
1 *24196:Q *467:8 42.7229 
2 *467:8 *24302:A 41.9564 
*END

*D_NET *468 0.0010622
*CONN
*I *24311:A I *D sky130_fd_sc_hd__dlygate4sd3_1
*I *24197:Q O *D sky130_fd_sc_hd__dfxtp_1
*CAP
1 *24311:A 0.000221195
2 *24197:Q 0.000251391
3 *468:8 0.000472586
4 *468:8 *469:8 0
5 *40:14 *468:8 3.81391e-05
6 *152:8 *468:8 0
7 *344:6 *24311:A 7.88926e-05
8 *356:87 *468:8 0
*RES
1 *24197:Q *468:8 42.7229 
2 *468:8 *24311:A 42.4329 
*END

*D_NET *469 0.000720367
*CONN
*I *24286:A I *D sky130_fd_sc_hd__dlygate4sd3_1
*I *24154:Q O *D sky130_fd_sc_hd__dfxtp_1
*CAP
1 *24286:A 0
2 *24154:Q 0.000182688
3 *469:8 0.000182688
4 *152:8 *469:8 0.000245818
5 *356:87 *469:8 0.000109172
6 *468:8 *469:8 0
*RES
1 *24154:Q *469:8 42.7229 
2 *469:8 *24286:A 38 
*END

*D_NET *470 0.000718717
*CONN
*I *24268:A I *D sky130_fd_sc_hd__dlygate4sd3_1
*I *24152:Q O *D sky130_fd_sc_hd__dfxtp_1
*CAP
1 *24268:A 6.87141e-05
2 *24152:Q 9.2735e-05
3 *470:8 0.000161449
4 *470:8 *479:8 0
5 *24121:A_N *24268:A 0.000123944
6 *187:22 *24268:A 0.000123944
7 *360:74 *470:8 0.000110913
8 *360:87 *470:8 3.70187e-05
*RES
1 *24152:Q *470:8 39.9057 
2 *470:8 *24268:A 40.5271 
*END

*D_NET *471 0.000517676
*CONN
*I *24256:A I *D sky130_fd_sc_hd__dlygate4sd3_1
*I *24184:Q O *D sky130_fd_sc_hd__dfxtp_1
*CAP
1 *24256:A 0
2 *24184:Q 0.00010544
3 *471:10 0.00010544
4 *24005:A3 *471:10 0.000111852
5 *24164:CLK *471:10 2.93431e-05
6 *357:48 *471:10 2.68751e-05
7 *409:8 *471:10 0.000138727
*RES
1 *24184:Q *471:10 40.5271 
2 *471:10 *24256:A 38 
*END

*D_NET *472 0.000141427
*CONN
*I *24252:A I *D sky130_fd_sc_hd__dlygate4sd3_1
*I *24185:Q O *D sky130_fd_sc_hd__dfxtp_1
*CAP
1 *24252:A 6.09729e-05
2 *24185:Q 6.09729e-05
3 *387:12 *24252:A 1.94812e-05
*RES
1 *24185:Q *24252:A 47.1186 
*END

*D_NET *473 0.00153169
*CONN
*I *24312:A I *D sky130_fd_sc_hd__dlygate4sd3_1
*I *24186:Q O *D sky130_fd_sc_hd__dfxtp_1
*CAP
1 *24312:A 0
2 *24186:Q 0.00053173
3 *473:10 0.00053173
4 *24035:A2 *473:10 7.70465e-05
5 *24035:B1 *473:10 0.000121884
6 *353:86 *473:10 4.48671e-05
7 *363:95 *473:10 0.000220047
8 *363:107 *473:10 4.38068e-06
*RES
1 *24186:Q *473:10 46.7207 
2 *473:10 *24312:A 38 
*END

*D_NET *474 0.00129331
*CONN
*I *24034:C I *D sky130_fd_sc_hd__and3_1
*I *24288:A I *D sky130_fd_sc_hd__dlygate4sd3_1
*I *24187:Q O *D sky130_fd_sc_hd__dfxtp_1
*CAP
1 *24034:C 0
2 *24288:A 0.000148905
3 *24187:Q 0.00044851
4 *474:8 0.000597415
5 *447:25 *24288:A 9.84794e-05
*RES
1 *24187:Q *474:8 30.6229 
2 *474:8 *24288:A 25.8586 
3 *474:8 *24034:C 23 
*END

*D_NET *475 0.0062335
*CONN
*I *24064:A1 I *D sky130_fd_sc_hd__a31o_1
*I *24047:A I *D sky130_fd_sc_hd__and2_1
*I *24058:A1 I *D sky130_fd_sc_hd__a21oi_1
*I *24068:A1 I *D sky130_fd_sc_hd__a32o_1
*I *24314:A I *D sky130_fd_sc_hd__dlygate4sd3_1
*I *24048:A I *D sky130_fd_sc_hd__nor2_1
*I *24188:Q O *D sky130_fd_sc_hd__dfxtp_2
*CAP
1 *24064:A1 0
2 *24047:A 0
3 *24058:A1 0
4 *24068:A1 0
5 *24314:A 6.07614e-05
6 *24048:A 0
7 *24188:Q 0.000679673
8 *475:75 0.00027677
9 *475:62 0.000399986
10 *475:50 0.000344163
11 *475:36 0.000427279
12 *475:23 0.000277734
13 *475:21 0.000460704
14 *475:10 0.000883304
15 *24047:B *475:75 5.50106e-05
16 *24066:C *475:75 5.46706e-05
17 *24068:A3 *475:50 8.61927e-05
18 *24068:B1 *475:50 0.000165882
19 *105:42 *475:75 9.70251e-05
20 *187:20 *475:10 6.40565e-05
21 *224:21 *475:10 0
22 *224:32 *475:10 0
23 *224:32 *475:21 0
24 *224:47 *475:21 0
25 *228:10 *475:36 0.000164291
26 *228:10 *475:50 3.3123e-05
27 *236:10 *475:75 8.4047e-05
28 *236:29 *475:36 5.0135e-05
29 *245:19 *475:50 4.6318e-06
30 *248:8 *475:50 9.21347e-06
31 *249:8 *475:50 0.000138718
32 *258:10 *475:50 4.57742e-05
33 *328:10 *475:75 1.14452e-05
34 *328:28 *475:50 1.72202e-05
35 *328:30 *475:50 5.50106e-05
36 *347:8 *475:10 0.00025307
37 *347:8 *475:21 0.000398924
38 *347:22 *475:10 0.000136486
39 *347:48 *475:50 4.5051e-05
40 *361:57 *475:75 0
41 *361:61 *24314:A 4.9662e-05
42 *361:61 *475:23 0.000116554
43 *361:61 *475:62 0.000150242
44 *361:61 *475:75 0.000136687
*RES
1 *24188:Q *475:10 49.4136 
2 *475:10 *24048:A 38 
3 *475:10 *475:21 20.4271 
4 *475:21 *475:23 2.52714 
5 *475:23 *24314:A 24.0979 
6 *475:23 *475:36 32.2579 
7 *475:36 *475:50 37.4571 
8 *475:50 *24068:A1 23 
9 *475:36 *24058:A1 23 
10 *475:21 *475:62 3.00357 
11 *475:62 *24047:A 23 
12 *475:62 *475:75 36.4421 
13 *475:75 *24064:A1 23 
*END

*D_NET *476 0.00187368
*CONN
*I *24294:A I *D sky130_fd_sc_hd__dlygate4sd3_1
*I *24189:Q O *D sky130_fd_sc_hd__dfxtp_1
*CAP
1 *24294:A 0.000246121
2 *24189:Q 0.000298308
3 *476:10 0.00054443
4 *476:10 *477:10 0.000139647
5 *24066:A *24294:A 0.000225393
6 *354:227 *24294:A 0.000190653
7 *382:6 *24294:A 0.000202663
8 *382:10 *24294:A 2.64616e-05
*RES
1 *24189:Q *476:10 42.4329 
2 *476:10 *24294:A 45.7679 
*END

*D_NET *477 0.00106635
*CONN
*I *24230:A I *D sky130_fd_sc_hd__dlygate4sd3_1
*I *24190:Q O *D sky130_fd_sc_hd__dfxtp_1
*CAP
1 *24230:A 0
2 *24190:Q 0.000463352
3 *477:10 0.000463352
4 *310:188 *477:10 0
5 *476:10 *477:10 0.000139647
*RES
1 *24190:Q *477:10 45.7264 
2 *477:10 *24230:A 38 
*END

*D_NET *478 0.00212879
*CONN
*I *24076:A1 I *D sky130_fd_sc_hd__a41o_1
*I *24307:A I *D sky130_fd_sc_hd__dlygate4sd3_1
*I *24191:Q O *D sky130_fd_sc_hd__dfxtp_1
*CAP
1 *24076:A1 0.000137361
2 *24307:A 0
3 *24191:Q 0.000485524
4 *478:10 0.000622885
5 *23886:A *478:10 4.33731e-05
6 *24076:A2 *24076:A1 3.7122e-06
7 *24076:B1 *24076:A1 2.04774e-05
8 *24076:B1 *478:10 5.19255e-05
9 *260:12 *24076:A1 0.00018152
10 *260:12 *478:10 1.14452e-05
11 *360:100 *24076:A1 0.000218943
12 *360:100 *478:10 0.000351626
13 *362:185 *478:10 0
*RES
1 *24191:Q *478:10 46.6793 
2 *478:10 *24307:A 38 
3 *478:10 *24076:A1 42.06 
*END

*D_NET *479 0.00176555
*CONN
*I *24273:A I *D sky130_fd_sc_hd__dlygate4sd3_1
*I *24155:Q O *D sky130_fd_sc_hd__dfxtp_1
*CAP
1 *24273:A 0.000230598
2 *24155:Q 0.000580522
3 *479:8 0.000811121
4 *188:12 *479:8 0
5 *360:74 *479:8 0
6 *360:87 *479:8 0
7 *360:100 *479:8 0
8 *376:10 *24273:A 5.47927e-05
9 *421:8 *479:8 8.85189e-05
10 *470:8 *479:8 0
*RES
1 *24155:Q *479:8 48.3571 
2 *479:8 *24273:A 42.4329 
*END

*D_NET *480 0.000992599
*CONN
*I *24251:A I *D sky130_fd_sc_hd__dlygate4sd3_1
*I *24151:Q O *D sky130_fd_sc_hd__dfxtp_1
*CAP
1 *24251:A 0.000132347
2 *24151:Q 5.08425e-05
3 *480:8 0.000183189
4 *39:10 *24251:A 0.00031495
5 *102:14 *480:8 0.00014411
6 *374:8 *24251:A 9.67842e-05
7 *437:23 *480:8 7.03766e-05
*RES
1 *24151:Q *480:8 39.9057 
2 *480:8 *24251:A 41.9564 
*END

*D_NET *481 0.000428251
*CONN
*I *24229:A I *D sky130_fd_sc_hd__dlygate4sd3_1
*I *24150:Q O *D sky130_fd_sc_hd__dfxtp_1
*CAP
1 *24229:A 0
2 *24150:Q 0.000130622
3 *481:10 0.000130622
4 *24248:A *481:10 2.22079e-05
5 *101:51 *481:10 5.50106e-05
6 *372:10 *481:10 6.6869e-05
7 *437:23 *481:10 2.29192e-05
*RES
1 *24150:Q *481:10 40.5271 
2 *481:10 *24229:A 38 
*END

*D_NET *482 0.000390126
*CONN
*I *24290:A I *D sky130_fd_sc_hd__dlygate4sd3_1
*I *24156:Q O *D sky130_fd_sc_hd__dfxtp_1
*CAP
1 *24290:A 3.75913e-05
2 *24156:Q 8.14654e-05
3 *482:8 0.000119057
4 *23989:A1 *482:8 0.000141869
5 *365:19 *482:8 1.01436e-05
*RES
1 *24156:Q *482:8 39.9057 
2 *482:8 *24290:A 38.6214 
*END

*D_NET *483 0.000507242
*CONN
*I *24310:A I *D sky130_fd_sc_hd__dlygate4sd3_1
*I *24157:Q O *D sky130_fd_sc_hd__dfxtp_1
*CAP
1 *24310:A 5.75572e-05
2 *24157:Q 9.90808e-05
3 *483:8 0.000156638
4 *23989:A1 *483:8 1.14452e-05
5 *24225:A *24310:A 0.000142916
6 *308:37 *483:8 3.96053e-05
*RES
1 *24157:Q *483:8 39.9057 
2 *483:8 *24310:A 39.5743 
*END
